Na1 Sr1 Tb1 W1 O6
1.0
   5.1562333106994629    0.0000000000000000    2.9860105514526363
   1.7183758535629168    4.8571614586349661    2.9833273887634277
   0.0000000000000000    0.0000000000000000    5.9510803222656250
Na Sr Tb W O
1 1 1 1 6
direct
   0.7128880620002747    0.3701851665973663    0.0069306925870478 Na
   0.2130476087331772    0.8703716993331908    0.5070032477378845 Sr
   0.9631484150886535    0.6199137568473816    0.2568808794021608 Tb
   0.4629265666007995    0.1206337288022041    0.7569290995597839 W
   0.2306819111108780    0.3530178666114807    0.5243839621543884 O
   0.6953247189521790    0.8878952264785767    0.5244753360748291 O
   0.2306032925844192    0.8877043128013611    0.9897533059120178 O
   0.6955572962760925    0.3530437648296356    0.5243166089057922 O
   0.6954642534255983    0.8875433802604674    0.9895514249801636 O
   0.2301447540521621    0.3526620566844940    0.9897308349609375 O
