Generated by VASPKIT code
 1.000000
    4.7710487856969097   -0.0481534621176168   -3.2042935324039017
   -0.0926864088311661    4.8611983989185470   -2.9219304866370144
    0.0316032399881965    0.0755494385437922    6.3091423564690663
   Ca   Re   O 
     1     1     6
Direct
    0.7352751278679511    0.9715874399152425    0.5261530515035571    Ca001
    0.3781087440657180    0.7634786681259556    0.6839011685842539    Re001
    0.1764328907626330    0.1002069922274754    0.6961620584701996     O001
    0.3537424824260864    0.6970978192478116    0.3471733483699587     O002
    0.4360672887935774    0.8526471680903397    0.0401035285566371     O003
    0.0224897392134732    0.5921532851062792    0.4824597475840987     O004
    0.7286126952196347    0.9515309859968013    0.8817319139796183     O005
    0.5578727828363044    0.4221647192014277    0.6607414888989528     O006
