Generated by VASPKIT code
 1.000000
    4.9536794108274291   -0.0052750849808781   -0.0013828481333778
    0.0077646628465211    4.7098464591928959    1.5961532744175575
   -0.0015190621660006   -0.0231732917563348    7.7483012961728228
   Bi   O 
     2     5
Direct
    0.6304764776776117    0.0426315226587197    0.2223177275838892    Bi001
    0.6301247337879801    0.3745351410378984    0.5973358199329899    Bi002
    0.0628755182148623    0.0563996444185074    0.2203725210451901     O001
    0.6078294519006362    0.2087795121511306    0.9098459550067178     O002
    0.6160330531603803    0.6074523983725387    0.2243928821572797     O003
    0.6150052984370293    0.8094950233158849    0.5955410878153924     O004
    0.0623887439050001    0.3601447764949207    0.5998213089951285     O005
