Na6 Fe2 O7                              
   1.00000000000000     
     5.2191726929437516    0.0022739294762154   -0.7010545240002126
    -1.7860822377505476    6.0033085453207633    0.2561300998763526
    -0.0011265551361482   -0.0212003308003487    5.6913398834203806
   Na   Fe   O 
     6     2     7
Direct
  0.3283775261358940  0.7718157219106582  0.8846985619845237
  0.7850928952377718  0.6463540760386434  0.1388299196830707
  0.7921846921495332  0.9132458181305604  0.6011058383365281
  0.2936035397023073  0.3023732574730146  0.8932497549320593
  0.7643366704606387  0.1708685042117639  0.1532953002951334
  0.2920988480780459  0.0288887159953690  0.4350246184785921
  0.7578408113808233  0.4011163672490672  0.5938989364506231
  0.2840020366301080  0.5375050310682307  0.3937251755797725
  0.0343014793955509  0.2740314034278453  0.5206579465123867
  0.5558776161897323  0.5703605635256040  0.6893217063431838
  0.4988346603887236  0.8121302817133071  0.2772929800838632
  0.0466688398941198  0.6604541064727391  0.5312343987347420
  0.5246729778882029  0.3669479183590286  0.3297987790444182
  0.0956845964913447  0.4832558737933943  0.1000538325390937
  0.6097733921000059  0.1519241187103036  0.7634021206204246
 
  0.00000000E+00  0.00000000E+00  0.00000000E+00
  0.00000000E+00  0.00000000E+00  0.00000000E+00
  0.00000000E+00  0.00000000E+00  0.00000000E+00
  0.00000000E+00  0.00000000E+00  0.00000000E+00
  0.00000000E+00  0.00000000E+00  0.00000000E+00
  0.00000000E+00  0.00000000E+00  0.00000000E+00
  0.00000000E+00  0.00000000E+00  0.00000000E+00
  0.00000000E+00  0.00000000E+00  0.00000000E+00
  0.00000000E+00  0.00000000E+00  0.00000000E+00
  0.00000000E+00  0.00000000E+00  0.00000000E+00
  0.00000000E+00  0.00000000E+00  0.00000000E+00
  0.00000000E+00  0.00000000E+00  0.00000000E+00
  0.00000000E+00  0.00000000E+00  0.00000000E+00
  0.00000000E+00  0.00000000E+00  0.00000000E+00
  0.00000000E+00  0.00000000E+00  0.00000000E+00
