Na5 Ta1 Bi6 O14                         
   1.00000000000000     
     6.9126805282391777   -0.2835630675029914    0.9760875825395048
    -0.6201790520302266    6.8794176032311700    0.6174799117664092
     0.1518180275054539   -0.4119241962882441    8.9901443321283114
   Na   Ta   Bi   O 
     5     1     6    14
Direct
  0.6437385704214796  0.2163702334336570  0.5017518488948531
  0.1703283202651683 -0.0085381236443069  0.6687813995889632
  0.2063944051586506  0.7634894741140865  0.9643772719223170
  0.0626511928072577  0.4879908692552982  0.2874278188209634
  0.6418124650259477  0.9385233966045599  0.8010846154118231
  0.8990365061604150  0.8839038472959151  0.4161621266094070
  0.9286219145324828  0.1363294265416244  0.0685096984845073
  0.9313400622023312  0.5056334125950511  0.7006367080026101
  0.4094434196085786  0.0190775558542820  0.2136727683780568
  0.3996771416512830  0.3773658016658518  0.8710272330697467
  0.7432171812530174  0.5995397609207953  0.0740150625857203
  0.4327004062079349  0.6270109988858177  0.5126260063798972
  0.0406125471386448  0.4376233186896518  0.0245741093016064
  0.8791161978326723  0.0264394686144512  0.5858744910138564
  0.6506038296740719  0.2467077407162445  0.1900756234021961
  0.1384529702733799  0.7727313306391997  0.4432956099177472
  0.7622646248583747  0.5969272229844652  0.5244103506339216
  0.7013284162120074  0.3014413665473303  0.8184634768425639
  0.6103949447528290  0.8970191681424023  0.3987484602911354
  0.8838346292895611  0.7333437541690851  0.8487751881271473
  0.3717462514184400  0.7415140668204152  0.7184086244297049
  0.9334823852832819  0.7695216531013939  0.1953706730439768
  0.0025447483691569  0.1333219351287419  0.2929961676258016
  0.2777664297182507  0.1024220331359971  0.9909991883920273
  0.5187321726579252  0.8148963933144328  0.0673679431999758
  0.3479104245834485  0.2999996005245495  0.6575474053825948
 
  0.00000000E+00  0.00000000E+00  0.00000000E+00
  0.00000000E+00  0.00000000E+00  0.00000000E+00
  0.00000000E+00  0.00000000E+00  0.00000000E+00
  0.00000000E+00  0.00000000E+00  0.00000000E+00
  0.00000000E+00  0.00000000E+00  0.00000000E+00
  0.00000000E+00  0.00000000E+00  0.00000000E+00
  0.00000000E+00  0.00000000E+00  0.00000000E+00
  0.00000000E+00  0.00000000E+00  0.00000000E+00
  0.00000000E+00  0.00000000E+00  0.00000000E+00
  0.00000000E+00  0.00000000E+00  0.00000000E+00
  0.00000000E+00  0.00000000E+00  0.00000000E+00
  0.00000000E+00  0.00000000E+00  0.00000000E+00
  0.00000000E+00  0.00000000E+00  0.00000000E+00
  0.00000000E+00  0.00000000E+00  0.00000000E+00
  0.00000000E+00  0.00000000E+00  0.00000000E+00
  0.00000000E+00  0.00000000E+00  0.00000000E+00
  0.00000000E+00  0.00000000E+00  0.00000000E+00
  0.00000000E+00  0.00000000E+00  0.00000000E+00
  0.00000000E+00  0.00000000E+00  0.00000000E+00
  0.00000000E+00  0.00000000E+00  0.00000000E+00
  0.00000000E+00  0.00000000E+00  0.00000000E+00
  0.00000000E+00  0.00000000E+00  0.00000000E+00
  0.00000000E+00  0.00000000E+00  0.00000000E+00
  0.00000000E+00  0.00000000E+00  0.00000000E+00
  0.00000000E+00  0.00000000E+00  0.00000000E+00
  0.00000000E+00  0.00000000E+00  0.00000000E+00
