Na3 Cu1 Mo1 Se5 O16                     
   1.00000000000000     
     6.1843737053333081   -0.0392947370929955   -0.3231067671442230
    -0.1284285318386628    6.1827573223047088    0.1440054071806527
     0.1435800908993733   -0.3239676394481206    9.4914410136965568
   Na   Cu   Mo   Se   O 
     3     1     1     5    16
Direct
  0.0135989727662792  0.9063325782044248  0.6114165164991792
  0.8705200384133811  0.4446384656840041  0.0748773183621857
  0.6977719754299794  0.7563542778684463  0.3230090117975437
  0.3796355084159639  0.2422835107600438  0.3191506034489885
  0.5184723287010730  0.6331904925985946  0.7502150565285111
  0.5483969613196666  0.1065950295690018  0.6381592499627500
  0.9225859688158303  0.3886814055594413  0.4561245525810289
  0.3613600930510804  0.2324977524173011  0.9782151192660984
  0.2063926234756215  0.7468235218970992  0.2721822113548718
  0.7979370991721516  0.9435333368860824  0.9696670951755131
  0.2532178438486584  0.7071283365995126  0.7412113302415105
  0.0910858314923128  0.1845230132952474  0.4549935785763871
  0.8194739110029058  0.7852181326664107  0.1115282075843543
  0.3877422131665961  0.5438999831957172  0.3336147320764031
  0.8089977648869747  0.1432351033379596  0.7068888441187789
  0.8221003405156155  0.5594526927359968  0.8451074563605375
  0.0453165744371448  0.7552645277809232  0.4155077788351965
  0.8310550052630309  0.4182907255258036  0.2882817352969994
  0.6420292866538798  0.1593713824929624  0.0492918578545662
  0.4023807876079284  0.9494043669117401  0.3123161767574427
  0.5899684309987947  0.2056304326598964  0.4663017929719233
  0.5369066865798610  0.8862111590115240  0.8804266951556849
  0.4449030819972956  0.5036256087556530  0.9625464753766934
  0.4281996075038279  0.3523242626060004  0.6896870658648816
  0.2245209127036459  0.2477332611189726  0.1358498070677596
  0.6635858895977882  0.7475498981706049  0.5975993653158115
 
  0.00000000E+00  0.00000000E+00  0.00000000E+00
  0.00000000E+00  0.00000000E+00  0.00000000E+00
  0.00000000E+00  0.00000000E+00  0.00000000E+00
  0.00000000E+00  0.00000000E+00  0.00000000E+00
  0.00000000E+00  0.00000000E+00  0.00000000E+00
  0.00000000E+00  0.00000000E+00  0.00000000E+00
  0.00000000E+00  0.00000000E+00  0.00000000E+00
  0.00000000E+00  0.00000000E+00  0.00000000E+00
  0.00000000E+00  0.00000000E+00  0.00000000E+00
  0.00000000E+00  0.00000000E+00  0.00000000E+00
  0.00000000E+00  0.00000000E+00  0.00000000E+00
  0.00000000E+00  0.00000000E+00  0.00000000E+00
  0.00000000E+00  0.00000000E+00  0.00000000E+00
  0.00000000E+00  0.00000000E+00  0.00000000E+00
  0.00000000E+00  0.00000000E+00  0.00000000E+00
  0.00000000E+00  0.00000000E+00  0.00000000E+00
  0.00000000E+00  0.00000000E+00  0.00000000E+00
  0.00000000E+00  0.00000000E+00  0.00000000E+00
  0.00000000E+00  0.00000000E+00  0.00000000E+00
  0.00000000E+00  0.00000000E+00  0.00000000E+00
  0.00000000E+00  0.00000000E+00  0.00000000E+00
  0.00000000E+00  0.00000000E+00  0.00000000E+00
  0.00000000E+00  0.00000000E+00  0.00000000E+00
  0.00000000E+00  0.00000000E+00  0.00000000E+00
  0.00000000E+00  0.00000000E+00  0.00000000E+00
  0.00000000E+00  0.00000000E+00  0.00000000E+00
