Na7 Mg1 Ru1 O8
1.0
   6.3026289939880380    0.0000000000000000   -0.0634569078683851
   1.4842022144908062    5.6761823978155910   -0.2720249295234695
   0.0000000000000000    0.0000000000000000    6.6263265609741211
Na Mg Ru O
7 1 1 8
direct
   0.2787109613418580    0.7599729895591736    0.1932396888732910 Na
   0.8818357586860658    0.1310155689716339    0.1362242549657822 Na
   0.6727672219276428    0.1985991597175598    0.5437408089637756 Na
   0.1840292662382126    0.2496132105588913    0.4214629232883453 Na
   0.0357961095869541    0.8001384735107423    0.6980481743812561 Na
   0.8016882538795471    0.6823973655700685    0.3017273247241974 Na
   0.5515140891075134    0.6873951554298402    0.8009742498397827 Na
   0.0544601418077946    0.3392192721366882    0.8169392347335815 Mg
   0.4402835667133332    0.2166083008050919    0.0005415678024292 Ru
   0.6849790215492249    0.0250703021883965    0.8679281473159791 O
   0.8630120158195497    0.4850766956806183    0.6214582324028015 O
   0.0015381870325655    0.9504287242889405    0.3988803327083588 O
   0.3434831500053405    0.3946003317832947    0.7393363714218140 O
   0.1362724602222443    0.4205587804317474    0.0992030799388885 O
   0.2345489412546158    0.0168103687465191    0.8933807015419006 O
   0.4980863630771638    0.0469157844781876    0.2421339601278305 O
   0.5802850723266603    0.4499680697917938    0.0980508700013161 O
