Na3 Cu1 Te3
1.0
   6.5400819778442383    0.0000000000000000    4.0608615875244141
  -0.0062370344615046    4.5046696400185926    0.0421871393918991
   0.0000000000000000    0.0000000000000000    7.7100672721862793
Na Cu Te
3 1 3
direct
   0.2267390340566635    0.7939000725746155    0.5398302674293518 Na
   0.6657867431640625    0.7948546409606934    0.9777618646621704 Na
   0.8789973258972168    0.2956982254981995    0.3258068561553955 Na
   0.3708726167678833    0.2936741709709167    0.8339866995811462 Cu
   0.5972840785980225    0.7939543724060059    0.6109288930892944 Te
   0.0063475565984845    0.2945000529289246    0.8746502399444580 Te
   0.3269588351249695    0.2957476377487183    0.1978494077920914 Te
