Na6 Ni2 O6                              
   1.00000000000000     
     5.9298279493577546   -0.1115352970234836   -0.1368516287591759
     2.3080249127627912    5.1052182579278851    0.4583459041051926
    -0.0772728502338044   -0.2329447219408123    6.5549393432931220
   Na   Ni   O 
     6     2     6
Direct
  0.8888870690714655  0.9934945860076662  0.1357492592641306
  0.4063051340523544  0.9562602164973303  0.3468114378156794
  0.9257338686526195  0.4586709254695177  0.3108250360182980
  0.8587873960679708  0.4734757059273414  0.8331987287790938
  0.9555587717303164  0.9788226867430531  0.6122583404280427
  0.4082069885396559  0.4960338384910662  0.1000051363125328
  0.4048356664723913  0.0564962648284962  0.8906681754417667
  0.4095995326090336  0.3949517778145727  0.5559756388315688
  0.1604104377680594  0.1805526965809241  0.0652573020033923
  0.6541099097830390  0.2720538844830762  0.3802974533424798
  0.1764653959965854  0.6637831687257930  0.3975305592903223
  0.6387202395256319  0.7882621302908853  0.0483481635073720
  0.6147039028861097  0.2056348809783250  0.7924108902390529
  0.1985540387715702  0.2462396337645832  0.6536818454735510
 
  0.00000000E+00  0.00000000E+00  0.00000000E+00
  0.00000000E+00  0.00000000E+00  0.00000000E+00
  0.00000000E+00  0.00000000E+00  0.00000000E+00
  0.00000000E+00  0.00000000E+00  0.00000000E+00
  0.00000000E+00  0.00000000E+00  0.00000000E+00
  0.00000000E+00  0.00000000E+00  0.00000000E+00
  0.00000000E+00  0.00000000E+00  0.00000000E+00
  0.00000000E+00  0.00000000E+00  0.00000000E+00
  0.00000000E+00  0.00000000E+00  0.00000000E+00
  0.00000000E+00  0.00000000E+00  0.00000000E+00
  0.00000000E+00  0.00000000E+00  0.00000000E+00
  0.00000000E+00  0.00000000E+00  0.00000000E+00
  0.00000000E+00  0.00000000E+00  0.00000000E+00
  0.00000000E+00  0.00000000E+00  0.00000000E+00
