Na4 Ti1 B1 P3 O13
1.0
   6.3898811340332031    0.0000000000000000    0.7514651417732233
   2.8476172386076550    6.0528432877397744    2.3035686016082759
   0.0000000000000000    0.0000000000000000    7.7933044433593750
Na Ti B P O
4 1 1 3 13
direct
   0.0411529205739499    0.7647698521614074    0.4260615110397339 Na
   0.8914029002189637    0.2163458168506622    0.1201575398445129 Na
   0.0985059291124344    0.9758677482604980    0.6953658461570740 Na
   0.4129092395305634    0.1723125129938125    0.1728425174951553 Na
   0.4218812286853792    0.6800724267959594    0.0982862561941147 Ti
   0.5310683846473694    0.0184373743832111    0.7954806685447693 B
   0.4540454745292665    0.4359667301177978    0.7718043923377991 P
   0.6415653824806213    0.2475764006376266    0.4811097383499146 P
   0.8628887534141542    0.7699953317642212    0.0607497580349445 P
   0.7848402857780458    0.9089810848236084    0.8573967814445496 O
   0.7603865265846254    0.5982220768928528    0.1176567971706390 O
   0.8868431448936464    0.1241689473390579    0.4399468302726746 O
   0.4148945808410645    0.8818556070327759    0.8613364100456238 O
   0.5634673833847046    0.4422675669193268    0.9257782697677612 O
   0.5295296907424927    0.0903844311833382    0.5925354957580566 O
   0.6482117176055908    0.3750977516174316    0.6152455806732178 O
   0.4020878672599794    0.2263525575399399    0.8487544655799866 O
   0.2945448756217957    0.8742049932479858    0.2036478072404861 O
   0.7896324396133424    0.9175722599029541    0.1774265319108963 O
   0.2560180127620697    0.6338056921958923    0.6699797511100769 O
   0.4849571287631990    0.4022665321826934    0.3141033351421356 O
   0.1320629715919495    0.6458128690719604    0.0625563710927963 O
