Na6 Zn1 O4
1.0
   5.4443101882934570    0.0000000000000000   -0.1607001572847365
   2.7884360207131214    5.1058530398034945    2.7003266811370850
   0.0000000000000000    0.0000000000000000    5.4584197998046875
Na Zn O
6 1 4
direct
   0.0003108456730843    0.6994277834892273    0.4820250868797302 Na
   0.6753571033477782    0.2746855020523071    0.6997792124748230 Na
   0.4733402132987977    0.7638674974441528    0.4108007848262787 Na
   0.2171495109796524    0.2726804912090302    0.1564332693815231 Na
   0.2665381729602814    0.0029421471990645    0.7454203367233276 Na
   0.9289000630378723    0.7658396363258362    0.9540867805480957 Na
   0.7080255150794983    0.2849236428737640    0.1898351013660431 Zn
   0.3672089874744415    0.5425826311111450    0.8492952585220337 O
   0.0339598357677460    0.0305118374526501    0.0951072350144386 O
   0.8595497608184814    0.4649845361709595    0.3386127054691315 O
   0.6140593290328979    0.0273678377270699    0.5160105228424072 O
