Na17 Zn1 Sn1 O11
1.0
   6.3160681724548340    0.0000000000000000   -0.7626143097877502
  -1.1657797121027558    7.0464014975723730   -0.3591424524784092
   0.0000000000000000    0.0000000000000000    9.7983312606811523
Na Zn Sn O
17 1 1 11
direct
   0.1187814846634865    0.0004377579316497    0.9234213232994080 Na
   0.6676893234252930    0.2205883264541626    0.9988232851028442 Na
   0.0767238438129425    0.3910275399684906    0.8294479250907898 Na
   0.7945284843444824    0.7776252031326294    0.2888312041759491 Na
   0.4842339158058167    0.8699331879615784    0.1007435023784637 Na
   0.0049945674836636    0.1276701688766479    0.1700154542922974 Na
   0.1240595430135727    0.3189347684383393    0.4990352690219879 Na
   0.6372623443603516    0.3805931508541107    0.3026805520057678 Na
   0.7150347828865051    0.0925932303071022    0.5309536457061768 Na
   0.4126139879226685    0.2212703526020050    0.7079581022262573 Na
   0.4080242514610291    0.6289110779762268    0.4546020925045013 Na
   0.7784830331802368    0.5198239684104919    0.6096587181091309 Na
   0.3383106887340546    0.0739907026290894    0.3566204607486725 Na
   0.7516328692436218    0.9226842522621156    0.7734487056732178 Na
   0.8026000261306763    0.6188167929649354    0.9598656296730042 Na
   0.1171241253614426    0.6039923429489136    0.2267386019229889 Na
   0.3794374763965607    0.6911565065383911    0.7962867617607117 Na
   0.3414735496044159    0.4077707827091217    0.0751336589455605 Zn
   0.0947059914469719    0.8705570101737976    0.5787774920463562 Sn
   0.4212862849235535    0.8915940523147584    0.6130325794219971 O
   0.4682267904281616    0.6147956252098085    0.2231133729219437 O
   0.7809511423110962    0.9235906004905701    0.0050826072692871 O
   0.0352496430277824    0.1141798645257950    0.6891096234321594 O
   0.9939829707145691    0.0193542931228876    0.4072620868682861 O
   0.0185717735439539    0.6182049512863160    0.4493115246295929 O
   0.4997164905071259    0.3307910859584808    0.5048862099647522 O
   0.4571416974067688    0.4301470816135407    0.8957101702690127 O
   0.0096890255808830    0.4008378684520721    0.0502458401024342 O
   0.3782750368118286    0.1489626318216324    0.1374615430831909 O
   0.0219082701951266    0.7171701788902284    0.7508835792541504 O
