Na10 Fe4 O13
1.0
   5.6045866012573242    0.0000000000000000   -1.0781079530715940
  -1.3529977002788216    5.4579218935570886   -0.1902208179235456
   0.0000000000000000    0.0000000000000000   11.2982425689697266
Na Fe O
10 4 13
direct
   0.9430692195892334    0.0916788801550865    0.9219291806221008 Na
   0.4954215586185455    0.8323498964309692    0.2459604442119598 Na
   0.2109415978193283    0.2955371141433716    0.1953764408826828 Na
   0.9756635427474976    0.9026823639869690    0.4203761518001556 Na
   0.8298304080963135    0.3364502489566804    0.3677518069744110 Na
   0.3673347234725952    0.0299731101840735    0.7880654931068420 Na
   0.0566813722252846    0.4699888229370118    0.6804288029670715 Na
   0.8627108931541443    0.8891496062278749    0.6462345719337463 Na
   0.6663682460784912    0.5342038273811340    0.8542686700820923 Na
   0.5861212611198425    0.1891776025295258    0.0645298510789871 Na
   0.3744148612022400    0.6463593244552612    0.4754786193370819 Fe
   0.4959721565246582    0.1851739138364792    0.5622373223304749 Fe
   0.9355050921440125    0.7105599641799927    0.1634803265333175 Fe
   0.2297885566949844    0.6616638302803041    0.9586586952209475 Fe
   0.2663458287715912    0.8527259826660157    0.5860390067100525 O
   0.9677289128303528    0.4732653200626373    0.0353551656007767 O
   0.2804412841796875    0.3763342797756196    0.8917886018753052 O
   0.5331156253814697    0.8431188464164734    0.9445998072624207 O
   0.2091142982244492    0.3084829747676849    0.5249475836753845 O
   0.2031204998493195    0.9006688594818115    0.0870543345808983 O
   0.8855147361755371    0.9990385174751282    0.2252213209867477 O
   0.6083507537841798    0.9836548566818238    0.4580354988574982 O
   0.6968171596527100    0.2038670629262924    0.7112396955490112 O
   0.6634896993637085    0.5184971690177917    0.5188518166542053 O
   0.6482589244842529    0.5078318715095520    0.1963557004928589 O
   0.1669974327087402    0.6221409440040588    0.3192224502563477 O
   0.0323599055409431    0.7605324983596802    0.8275085091590881 O
