Cs2 Na1 Bi1 Br5 F1
1.0
   7.0710320472717294    0.0000000000000000    4.0963935852050790
   2.3845573230083223    6.6422667413774841    4.0110478401184082
   0.0000000000000000    0.0000000000000000    8.1187171936035156
Cs Na Bi Br F
2 1 1 5 1
direct
   0.0860889554023743    0.4818426370620727    0.1140781641006470 Cs
   0.5860868692398071    0.9817956686019896    0.6142513155937196 Cs
   0.8377711176872253    0.2299221158027649    0.8622949719429016 Na
   0.3350482583045960    0.7331444025039672    0.3636560738086700 Bi
   0.5838966965675354    0.4837041795253753    0.1173774376511574 Br
   0.5818707942962646    0.4857436120510101    0.6109701395034790 Br
   0.0893490239977837    0.4853305816650390    0.6103839874267578 Br
   0.5823252797126770    0.9782256484031676    0.1180821284651757 Br
   0.0898325368762016    0.9775527119636535    0.1163489073514939 Br
   0.0903877541422844    0.9776030778884887    0.6097139716148378 F
