Na1 Cu1 Pd1 Au1 F8                      
   1.00000000000000     
     4.8406109809875488    0.0000000000000000   -0.1052786186337476
    -0.1989963200304006    5.6760882375439898   -3.6550281047821045
     0.0000000000000000    0.0000000000000000    5.6883821487426758
   Na   Cu   Pd   Au   F 
     1     1     1     1     8
Direct
  0.3514315698711319  0.3208074436529836  0.8564409536031959
  0.3523567156790366  0.8202286381097983  0.8561071061083985
  0.8516769432467622  0.8203293889201864  0.3556454581481767
  0.8535327783033487  0.3219064103951093  0.3556873105307054
  0.6906517046486890  0.1609540186400558  0.5435477487383467
  0.0114967896062768  0.4792306764930805  0.1702785342337945
  0.0926163252038090  0.9365931623796673  0.1417273952886088
  0.1509650299526531  0.9533696384899125  0.6729901681961480
  0.5686998462347239  0.1742680731289786  0.0824982478300975
  0.6102472498420457  0.7064958191346222  0.5735389535871348
  0.1343039216232487  0.4672071691501610  0.6316003030605278
  0.5528183292694716  0.6879017354871109  0.0393207051772762
 
  0.00000000E+00  0.00000000E+00  0.00000000E+00
  0.00000000E+00  0.00000000E+00  0.00000000E+00
  0.00000000E+00  0.00000000E+00  0.00000000E+00
  0.00000000E+00  0.00000000E+00  0.00000000E+00
  0.00000000E+00  0.00000000E+00  0.00000000E+00
  0.00000000E+00  0.00000000E+00  0.00000000E+00
  0.00000000E+00  0.00000000E+00  0.00000000E+00
  0.00000000E+00  0.00000000E+00  0.00000000E+00
  0.00000000E+00  0.00000000E+00  0.00000000E+00
  0.00000000E+00  0.00000000E+00  0.00000000E+00
  0.00000000E+00  0.00000000E+00  0.00000000E+00
  0.00000000E+00  0.00000000E+00  0.00000000E+00
