Na18 Co6 N14                            
   1.00000000000000     
     8.1548566887188798   -0.0214675103492334   -0.8498299124018608
    -0.7792804093557285    7.5997396731721247    1.1698194529103239
    -0.0399358810409074   -0.0199416171787443    9.3296222510433608
   Na   Co   N 
    18     6    14
Direct
  0.7412082444283876  0.1652120640862292  0.6702099584936384
  0.2774873622280272  0.1547442301782098  0.0887722956478781
  0.3581914463117378  0.2788533890195221  0.7867137236067546
  0.6706138094363020  0.2931650955433759  0.0352873302679454
  0.5153954634006922  0.5929828136482828  0.6226389904203793
  0.8108502536715408  0.2488179872940522  0.3527652464271120
  0.1694060986260786  0.3801852125382276  0.5099729785921646
  0.0018387765803687  0.3258819738456333  0.8748961456682975
  0.0053000892758295  0.9330120232957113  0.3698775477686525
  0.5331420995503137  0.9147738533427442  0.0526397966768689
  0.0635972463499620  0.9565393649495728  0.7094188156229833
  0.7389378352168691  0.6728785836759182  0.2692958509909882
  0.4476879574582053  0.4183844532545133  0.2538132560929283
  0.0547012319820619  0.5146422662039336  0.1516580174025888
  0.7830054047261867  0.7534404452282391  0.9058514410707547
  0.8778460860920579  0.5849633289108084  0.5963249356799886
  0.4635788882476874  0.9414505459748386  0.7071612133677305
  0.3016812953912378  0.7935682846398452  0.3054032064571635
  0.3417450753069954  0.1166724334955736  0.4195027594638884
  0.6146928245382539  0.9524131005335945  0.3815111232780389
  0.9193518719555871  0.0278048972704974  0.0721073364887627
  0.2065147899333407  0.7084735884052089  0.6021933503551109
  0.1285023917292731  0.8408607415583922  0.0142444716116299
  0.2746757329541934  0.6455593370548679  0.8764224146892750
  0.2510866259811848  0.9214734055206926  0.5203677898785446
  0.4896897181322600  0.3046579763433067  0.5217186999517598
  0.5639177658707105  0.5795663994956538  0.0401835401243188
  0.7751429735253469  0.0798236273498196  0.9278754002414975
  0.7441594889180155  0.8404568504032149  0.6441853933112850
  0.1644575327881775  0.5323525809287437  0.7290337074680483
  0.6167166035109759  0.3924811170220264  0.4940111633266165
  0.9812104058284240  0.8070476032314313  0.1395403606569394
  0.4852814293788926  0.0869836464078553  0.2741343156052287
  0.4486545315859568  0.5226739858920121  0.9611919580207740
  0.1339128693770691  0.2329060543694491  0.2844573920571636
  0.2846871894942400  0.8949491115185203  0.9034483154646762
  0.0223748512896660  0.2002116653417309  0.1837425796870155
  0.7688771964580758  0.8973657413073094  0.5177104188895464
 
  0.00000000E+00  0.00000000E+00  0.00000000E+00
  0.00000000E+00  0.00000000E+00  0.00000000E+00
  0.00000000E+00  0.00000000E+00  0.00000000E+00
  0.00000000E+00  0.00000000E+00  0.00000000E+00
  0.00000000E+00  0.00000000E+00  0.00000000E+00
  0.00000000E+00  0.00000000E+00  0.00000000E+00
  0.00000000E+00  0.00000000E+00  0.00000000E+00
  0.00000000E+00  0.00000000E+00  0.00000000E+00
  0.00000000E+00  0.00000000E+00  0.00000000E+00
  0.00000000E+00  0.00000000E+00  0.00000000E+00
  0.00000000E+00  0.00000000E+00  0.00000000E+00
  0.00000000E+00  0.00000000E+00  0.00000000E+00
  0.00000000E+00  0.00000000E+00  0.00000000E+00
  0.00000000E+00  0.00000000E+00  0.00000000E+00
  0.00000000E+00  0.00000000E+00  0.00000000E+00
  0.00000000E+00  0.00000000E+00  0.00000000E+00
  0.00000000E+00  0.00000000E+00  0.00000000E+00
  0.00000000E+00  0.00000000E+00  0.00000000E+00
  0.00000000E+00  0.00000000E+00  0.00000000E+00
  0.00000000E+00  0.00000000E+00  0.00000000E+00
  0.00000000E+00  0.00000000E+00  0.00000000E+00
  0.00000000E+00  0.00000000E+00  0.00000000E+00
  0.00000000E+00  0.00000000E+00  0.00000000E+00
  0.00000000E+00  0.00000000E+00  0.00000000E+00
  0.00000000E+00  0.00000000E+00  0.00000000E+00
  0.00000000E+00  0.00000000E+00  0.00000000E+00
  0.00000000E+00  0.00000000E+00  0.00000000E+00
  0.00000000E+00  0.00000000E+00  0.00000000E+00
  0.00000000E+00  0.00000000E+00  0.00000000E+00
  0.00000000E+00  0.00000000E+00  0.00000000E+00
  0.00000000E+00  0.00000000E+00  0.00000000E+00
  0.00000000E+00  0.00000000E+00  0.00000000E+00
  0.00000000E+00  0.00000000E+00  0.00000000E+00
  0.00000000E+00  0.00000000E+00  0.00000000E+00
  0.00000000E+00  0.00000000E+00  0.00000000E+00
  0.00000000E+00  0.00000000E+00  0.00000000E+00
  0.00000000E+00  0.00000000E+00  0.00000000E+00
  0.00000000E+00  0.00000000E+00  0.00000000E+00
