Na4 In1 H9 O8
1.0
   5.5676603317260751    0.0000000000000000   -0.5130304694175729
  -0.2080377285654644    6.3699247712207034    0.9884641766548156
   0.0000000000000000    0.0000000000000000    7.3807163238525391
Na In H O
4 1 9 8
direct
   0.6812739372253418    0.4626852869987487    0.8105909824371339 Na
   0.1926027983427048    0.9928230047225952    0.5197270512580872 Na
   0.1349170506000519    0.5020166039466857    0.5305640101432800 Na
   0.5365446805953979    0.0712664946913719    0.2218619883060456 Na
   0.5668963193893433    0.5356709361076355    0.2727917134761810 In
   0.9852979183197021    0.2199631035327911    0.7928715944290162 H
   0.0127056129276752    0.6883827447891235    0.7857185602188111 H
   0.9774651527404785    0.5145355463027954    0.1466020643711090 H
   0.6140871047973633    0.7693786621093750    0.5225763320922852 H
   0.9687384963035583    0.8779005408287047    0.2060117572546006 H
   0.2149695605039597    0.3834961056709289    0.9846570491790773 H
   0.8882752060890198    0.0146402101963758    0.7032476067543030 H
   0.6074877977371216    0.2333028018474579    0.5485247373580933 H
   0.0006835167296231    0.1330584436655045    0.1197485253214836 H
   0.0417483560740948    0.3710267245769501    0.9538004994392396 O
   0.9665927886962891    0.0216630510985851    0.2285360693931580 O
   0.9296492338180542    0.7515363097190856    0.6734139919281006 O
   0.4748886525630951    0.7597482204437256    0.4292726218700409 O
   0.4742026031017303    0.3956922292709350    0.0549378544092178 O
   0.4688902497291565    0.2809375226497650    0.4774049520492554 O
   0.9317893981933594    0.5898036360740661    0.2533935010433197 O
   0.9135615229606628    0.1783244460821151    0.6726433634757996 O
