Na2 Cr3 Cl8
1.0
   6.9255981445312500    0.0000000000000000    3.6040525436401367
   1.9446044011210972    6.0578457668888719    3.6683454513549805
   0.0000000000000000    0.0000000000000000    7.3304033279418945
Na Cr Cl
2 3 8
direct
   0.0833407789468765    0.4334676563739777    0.4160788357257843 Na
   0.9571729302406312    0.8110805153846741    0.7906216979026793 Na
   0.5732578635215759    0.4362410604953766    0.4175001680850983 Cr
   0.5728098154067994    0.4341502785682678    0.9243530035018921 Cr
   0.5731665492057800    0.9453031420707703    0.4162093997001650 Cr
   0.3727927207946777    0.1789748072624207    0.6362780928611755 Cl
   0.7803601026535034    0.6870201826095581    0.6674835085868835 Cl
   0.7791892290115356    0.2350788712501526    0.6682044267654419 Cl
   0.3722966313362122    0.6545034646987915    0.1632478982210159 Cl
   0.7793950438499451    0.6892868280410767    0.2156690657138824 Cl
   0.7844337224960327    0.2052108347415924    0.1827277094125747 Cl
   0.3703281283378601    0.1843115985393524    0.1617677062749863 Cl
   0.3711993098258972    0.6712890863418580    0.6528790593147278 Cl
