Na4 Ag2 As2
1.0
   4.7893214225769043    0.0000000000000000    0.0060345409438012
   0.0099109488753494    6.2878840539736638   -0.0928201600909232
   0.0000000000000000    0.0000000000000000    6.2418117523193359
Na Ag As
4 2 2
direct
   0.4173278212547302    0.5911726951599121    0.1581371426582336 Na
   0.9209195375442505    0.3318553864955903    0.9049036502838136 Na
   0.9166231751441956    0.9599462747573853    0.2787535786628723 Na
   0.4203507304191589    0.2123512178659439    0.5263358950614929 Na
   0.4196041822433472    0.6900846362113953    0.6367348432540894 Ag
   0.9189634919166565    0.8548321127891541    0.7976405024528505 Ag
   0.4198198318481445    0.0283469483256340    0.9707674384117128 As
   0.9195513725280762    0.5180070400238037    0.4632914960384369 As
