Na1 Cu2 Ni1 P8 O24
1.0
   5.3858442306518555    0.0000000000000000   -0.3636095821857457
  -0.2405353731761143   10.1021306089526384    0.7263273000717169
   0.0000000000000000    0.0000000000000000    9.1170740127563477
Na Cu Ni P O
1 2 1 8 24
direct
   0.9860597252845764    0.2828128933906555    0.9050481915473938 Na
   0.6197949051856995    0.2984527051448822    0.2754653990268707 Cu
   0.8249630928039551    0.8531549572944640    0.3016997873783112 Cu
   0.9917044043540955    0.9327182173728943    0.9828339815139771 Ni
   0.1255650967359543    0.1355199217796326    0.2545599639415741 P
   0.4819035530090332    0.7787470221519469    0.0000430345535278 P
   0.4721688330173492    0.4769461750984191    0.0120389508083463 P
   0.4749761819839478    0.0971230864524841    0.4933168888092041 P
   0.1146001815795898    0.4961587488651275    0.5884459018707275 P
   0.4770963788032532    0.0279046986252069    0.8351539969444275 P
   0.9504799842834473    0.7573440074920654    0.6435377597808838 P
   0.6234101057052612    0.6071115136146545    0.4797077476978302 P
   0.2332371026277542    0.7899625897407531    0.0621342919766903 O
   0.7113727331161499    0.8360072970390320    0.0911884978413582 O
   0.9287366271018982    0.2394078671932220    0.2173238843679428 O
   0.1843717843294144    0.1195427924394608    0.4326485991477966 O
   0.1254963576793671    0.6236040592193604    0.6788114905357361 O
   0.5809924602508545    0.9850408434867858    0.4222677350044250 O
   0.5910620689392090    0.7002537846565247    0.3484812676906586 O
   0.0966705232858658    0.3698048889636993    0.6701916456222534 O
   0.4408604800701141    0.0707699805498123    0.6658846735954285 O
   0.2505375146865845    0.0664042457938194    0.9086890816688538 O
   0.4759468734264374    0.8631318807601929    0.8392902016639708 O
   0.5857410430908203    0.4612967669963836    0.1720281541347504 O
   0.3780912756919861    0.5148820877075195    0.5012393593788147 O
   0.9585772156715393    0.8371367454528809    0.7758088707923889 O
   0.5993481278419495    0.3943786621093750    0.9096955060958862 O
   0.6785133481025696    0.6792276501655579    0.6248524785041809 O
   0.1894931644201279    0.4679924249649047    0.9990849494934082 O
   0.5511077046394348    0.6363542079925537    0.9589954614639282 O
   0.3648845553398132    0.1830611228942871    0.1846398115158081 O
   0.0207600891590118    0.8164818882942199    0.4918422996997833 O
   0.8692529797554016    0.5177572965621948    0.4690018296241760 O
   0.7285150289535522    0.0715840384364128    0.8973954319953918 O
   0.6097128391265869    0.2333487421274185    0.4722848534584045 O
   0.0324232280254364    0.9947814941406249    0.2084610015153885 O
