Na12 Zn5 Cd1 S12
1.0
   6.9505605697631845    0.0000000000000000    0.2505910992622373
   0.4656864810564798    7.6203512622554168   -0.3099942803382871
   0.0000000000000000    0.0000000000000000   12.8288021087646484
Na Zn Cd S
12 5 1 12
direct
   0.6124858856201172    0.2757285237312317    0.5734707117080688 Na
   0.9536226391792297    0.6112092137336731    0.4514274597167968 Na
   0.0119015807285905    0.6947755217552185    0.8866935968399047 Na
   0.8352599143981934    0.2800520658493043    0.1470345705747604 Na
   0.1459879428148270    0.0392360426485538    0.5293859839439392 Na
   0.4922292232513428    0.6451659798622131    0.2167457789182663 Na
   0.3596593439579010    0.4233571588993073    0.0134143102914095 Na
   0.4685792326927185    0.6884864568710327    0.5118554830551147 Na
   0.3274520337581635    0.0357908345758915    0.8334676623344420 Na
   0.9927701354026794    0.6995575428009033    0.1614346057176590 Na
   0.4994276165962219    0.6355934143066407    0.8116114139556884 Na
   0.8464690446853638    0.2978470027446747    0.8491712808609008 Na
   0.1298847794532776    0.4974423348903656    0.6715280413627625 Zn
   0.3138501644134521    0.0248937457799911    0.1813317388296127 Zn
   0.3654566407203674    0.3199168443679810    0.3517135381698608 Zn
   0.6177056431770325    0.8390206098556519    0.0073828618042171 Zn
   0.8485463261604309    0.8359975218772888    0.6848253607749939 Zn
   0.8222889900207520    0.0514513328671455    0.3492739498615265 Cd
   0.1984618902206421    0.8030902743339539    0.6839591264724731 S
   0.2722727954387665    0.8491947650909424    0.0249727163463831 S
   0.6890431642532349    0.3951966464519501    0.3519282639026642 S
   0.2442870587110519    0.3782253861427307    0.5138350129127502 S
   0.7240893840789795    0.9625414609909058    0.8468018174171447 S
   0.1744405776262283    0.8728334307670594    0.3263247907161713 S
   0.7337651252746582    0.5414820313453675    0.0154100582003593 S
   0.6697485446929932    0.9634023308753967    0.1753289103507996 S
   0.7412338256835938    0.9402758479118348    0.5268965363502502 S
   0.2362086176872253    0.3728333115577698    0.8202529549598693 S
   0.7918050289154053    0.5263997912406921    0.6736817955970764 S
   0.2169135212898254    0.3334786295890808    0.1988614648580551 S
