Ni1 B4 P2 O12                           
   1.00000000000000     
     4.6610152235352915   -0.2990165956511777   -0.2758389873173107
    -3.1224708178476779    8.5205536155018411   -1.0572707933355481
     0.0673562034808417    0.0241121965771304    6.3544739532390500
   Ni   B    P    O 
     1     4     2    12
Direct
  0.3223380236278455  0.0172182258095837  0.9962679433499678
  0.9746111746351316  0.4353922097037592  0.4830779264006755
  0.7254438851548647  0.4553520600075182  0.8201446925603874
  0.4268206593367486  0.6689997771944862  0.3832383915907161
  0.2896984940641926  0.5213798767377672  0.0016158124234583
  0.7346384334247429  0.9500023072578443  0.6682627294520164
  0.9453399265803528  0.1355965305933014  0.3104846873099212
  0.4284971580465693 -0.0469600649488757  0.7287326046650212
 -0.0675451833444012  0.9435090619341618  0.8553012013028882
  0.1786297333370735  0.5934099627082444  0.4939973826011475
  0.2415018331198436  0.1262251342715353  0.2392181478669446
  0.7416070211810162  0.3962591864808174  0.6131873300225957
  0.4339312449769389  0.4553546377235294  0.8572872226207877
  0.6529624984653165  0.0247697343468588  0.1744862559603061
  0.0042512441263471  0.3203234507060757  0.3335316830301776
  0.6729635488148977  0.8074743757253988  0.4821694361176744
 -0.0757857565360254  0.1041740363909006  0.5553366483108381
  0.4675835717819148  0.6153312748606909  0.1832505938919847
  0.9793371468256309  0.5035260083066346  0.9713408029703465
 
  0.00000000E+00  0.00000000E+00  0.00000000E+00
  0.00000000E+00  0.00000000E+00  0.00000000E+00
  0.00000000E+00  0.00000000E+00  0.00000000E+00
  0.00000000E+00  0.00000000E+00  0.00000000E+00
  0.00000000E+00  0.00000000E+00  0.00000000E+00
  0.00000000E+00  0.00000000E+00  0.00000000E+00
  0.00000000E+00  0.00000000E+00  0.00000000E+00
  0.00000000E+00  0.00000000E+00  0.00000000E+00
  0.00000000E+00  0.00000000E+00  0.00000000E+00
  0.00000000E+00  0.00000000E+00  0.00000000E+00
  0.00000000E+00  0.00000000E+00  0.00000000E+00
  0.00000000E+00  0.00000000E+00  0.00000000E+00
  0.00000000E+00  0.00000000E+00  0.00000000E+00
  0.00000000E+00  0.00000000E+00  0.00000000E+00
  0.00000000E+00  0.00000000E+00  0.00000000E+00
  0.00000000E+00  0.00000000E+00  0.00000000E+00
  0.00000000E+00  0.00000000E+00  0.00000000E+00
  0.00000000E+00  0.00000000E+00  0.00000000E+00
  0.00000000E+00  0.00000000E+00  0.00000000E+00
