Na2 Fe2 P4 O15
1.0
   5.0016293525695801    0.0000000000000000   -1.4151914119720463
  -0.0109126187853143    6.6292634791578147   -0.6115856766700746
   0.0000000000000000    0.0000000000000000    9.1728525161743164
Na Fe P O
2 2 4 15
direct
   0.0281816609203815    0.6036008596420288    0.3097586333751678 Na
   0.3195396363735199    0.2136614173650742    0.0017599903512746 Na
   0.1930877715349197    0.4409537911415100    0.6745504736900330 Fe
   0.5044860243797302    0.9180591106414795    0.3332886695861816 Fe
   0.1143764480948448    0.9367538094520569    0.5896409749984741 P
   0.7902509570121765    0.5138838291168213    0.9169571995735167 P
   0.5818237662315369    0.4143014550209046    0.4192709624767303 P
   0.8818138241767883    0.9209060072898865    0.0734285339713097 P
   0.5008474588394165    0.2211391925811768    0.3056126236915588 O
   0.8049091696739197    0.9384477734565735    0.5173529386520386 O
   0.4405099451541901    0.4114526808261871    0.5467711687088013 O
   0.8904424905776978    0.4201361238956451    0.4833999574184417 O
   0.2417535930871964    0.9243553876876831    0.4533244371414185 O
   0.9383161067962646    0.4493639469146729    0.0745789334177971 O
   0.4914803802967072    0.6006432175636292    0.3245873749256134 O
   0.7622587084770203    0.0986299663782120    0.0028471837285906 O
   0.7537699937820435    0.8579603433609009    0.1963681578636169 O
   0.9395338296890259    0.4356119632720947    0.8021551966667175 O
   0.1938676685094833    0.7467042207717896    0.6805199384689331 O
   0.1910062134265900    0.9147890806198120    0.1328373700380325 O
   0.4932942986488342    0.4564319849014282    0.8686242103576660 O
   0.2066878378391266    0.1292639076709747    0.6972864866256714 O
   0.8018692135810852    0.7527543902397156    0.9288748502731322 O
