Na3 Ag1 Hg2 I6
1.0
   6.2586216926574707    0.0000000000000000   -0.0223053526133292
  -0.0059922511950627    5.9124076994982984    2.0061836242675777
   0.0000000000000000    0.0000000000000000    9.8983716964721680
Na Ag Hg I
3 1 2 6
direct
   0.6902236342430115    0.2089070975780487    0.2137962579727173 Na
   0.6891629099845886    0.8741857409477234    0.8840962052345275 Na
   0.1883853077888489    0.0407302230596542    0.5501990914344788 Na
   0.6895096302032471    0.5435153245925903    0.5494868755340576 Ag
   0.1882800161838531    0.7086846232414246    0.2154590636491775 Hg
   0.1887806802988052    0.3754216134548188    0.8820772171020507 Hg
   0.6887033581733704    0.0417410284280777    0.5493521094322205 I
   0.1889944672584534    0.5411775112152100    0.5503008365631104 I
   0.6883956193923950    0.7031744122505188    0.2251840084791183 I
   0.1894198507070541    0.2115233838558197    0.2105993479490280 I
   0.6888381242752075    0.3804834485054017    0.8727017045021056 I
   0.1884338259696960    0.8729315400123596    0.8866460323333739 I
