Generated by VASPKIT code
 1.000000
    5.8924836857410030    0.0010975290286947   -1.2117719155811666
   -0.2697463574013569    6.5961655098765428   -0.9656053463953842
    0.0109216935355102   -0.0461068410228377    8.3532920411316223
   K    Ga   O 
     2     2     8
Direct
    0.2723920311360128    0.2972146377312981    0.8712924599436805     K001
    0.4321450030319743    0.6830523604849993    0.6343992086821585     K002
    0.2220152028929767    0.7935501754565207    0.9729430159842459    Ga001
    0.4820615342728046    0.1862352882887200    0.5334746701377162    Ga002
    0.1584100449832221    0.0565082085191120    0.0705587678742881     O001
    0.1485061436618653    0.6085826733571296    0.1112561303492541     O002
    0.1654253465504975    0.1946725758505256    0.5226345725844892     O003
    0.5389029988362355    0.7852302298655687    0.9836595968073560     O004
    0.5462789874116050    0.9238233701751959    0.4354536126723144     O005
    0.5559421444113894    0.3718230983030683    0.3952279669126105     O006
    0.0263855540465309    0.7292017825326755    0.7622569453121781     O007
    0.6779250184989949    0.2503335501967429    0.7441470728769738     O008
