Generated by VASPKIT code
 1.000000
    5.0098992394136648   -0.0062383539730334    2.8966198710440607
    1.6705916319112748    4.7175683961062669    2.8995863247625513
   -0.0041768382818867   -0.0059332690725454    5.7841523935543213
   Ba   Zr   W    O 
     1     1     1     6
Direct
    0.0627525651691391    0.8749233116399096    0.4076667505248680    Ba001
    0.3127076188953947    0.1248525371874874    0.6576106841259605    Zr001
    0.8125081360628572    0.6249229092470664    0.1576487783077751     W001
    0.5712818848951167    0.8660287996152541    0.3990195182240259     O001
    0.5713262124006365    0.8663517890111284    0.9162230146590944     O002
    0.0536927968084343    0.3838796519132734    0.9160114318836649     O003
    0.0539693027643268    0.3835650628036514    0.3987148120299310     O004
    0.0535303565775546    0.8664505882094435    0.9163451531477442     O005
    0.5714511658594033    0.3836076475752395    0.3987180651222622     O006
