Na6 B2 O6
1.0
   5.3713369369506836    0.0000000000000000    1.0251259803771975
   1.6633373404180389    5.0962058988500560   -0.9699697494506837
   0.0000000000000000    0.0000000000000000    6.2884778976440430
Na B O
6 2 6
direct
   0.0561070553958416    0.1361453831195831    0.2869826257228851 Na
   0.5633985400199890    0.2066761106252671    0.5655201077461243 Na
   0.6503093242645264    0.7282758951187134    0.7865984439849854 Na
   0.1231134235858917    0.7069521546363832    0.9374066591262817 Na
   0.5780282020568848    0.2211698740720749    0.0676976516842842 Na
   0.0781252905726433    0.6640565991401672    0.4397317171096802 Na
   0.0855464339256286    0.1675519198179245    0.7649134993553162 B
   0.6189710497856140    0.6993743777275085    0.2655374705791473 B
   0.1036157831549644    0.3641396760940552    0.6491088271141052 O
   0.6790051460266113    0.5278076529502869    0.4035060703754425 O
   0.7559223771095275    0.8796724081039430    0.2352498620748520 O
   0.2581299245357513    0.1055595129728317    0.9023432135581970 O
   0.9033313393592834    0.0299554523080587    0.7371188402175903 O
   0.4200595021247864    0.6830527186393738    0.1502514779567719 O
