Na2 V1 Cu2 Se4
1.0
   3.7180933952331539    0.0000000000000000    1.0729124546051028
   1.4797396686906825    6.9966802729334301    1.9652287960052486
   0.0000000000000000    0.0000000000000000    7.1044960021972656
Na V Cu Se
2 1 2 4
direct
   0.4899651706218719    0.5253428816795349    0.4170699715614319 Na
   0.2177056521177291    0.9734203815460205    0.5083865523338318 Na
   0.8531180024147034    0.2482381761074066    0.9634416699409486 V
   0.5424242019653320    0.8763530850410463    0.9589338302612306 Cu
   0.1649302691221237    0.6218541264533997    0.9658808708190919 Cu
   0.5066794157028198    0.1751234680414200    0.7318915128707886 Se
   0.7787522077560425    0.6156902313232422    0.7511035799980164 Se
   0.2007532715797424    0.3239297568798066    0.1938224285840988 Se
   0.9306811094284059    0.8813998699188232    0.1753800511360168 Se
