Na11 Fe3 O10
1.0
   6.0113916397094727    0.0000000000000000    0.0356552712619303
  -0.1287632998707040    5.9294673516606178    2.0925095081329332
   0.0000000000000000    0.0000000000000000    9.4966468811035156
Na Fe O
11 3 10
direct
   0.2197187244892120    0.7296665906906128    0.6691514253616333 Na
   0.8433277010917664    0.0063612693920732    0.1483072042465210 Na
   0.9087822437286377    0.1373316943645477    0.5273404717445374 Na
   0.7347482442855835    0.6809265017509460    0.5557739138603210 Na
   0.1707013994455338    0.3049027621746063    0.2137467116117477 Na
   0.4566369950771332    0.0181195363402367    0.3725062906742096 Na
   0.8974100947380066    0.2454641312360764    0.7974362373352051 Na
   0.3876698315143585    0.3173720240592957    0.6148823499679565 Na
   0.6291445493698120    0.5588238239288330    0.2332102507352829 Na
   0.1865748167037964    0.8696299791336060    0.9853373765945435 Na
   0.8758233785629272    0.5180731415748596    0.9946638345718384 Na
   0.1324053257703781    0.6675550341606140    0.3778442740440368 Fe
   0.4417227506637573    0.2687663435935974    0.9673449397087097 Fe
   0.6411291956901550    0.8495025038719178    0.7932658195495605 Fe
   0.0084035033360124    0.6325787305831909    0.2011120915412903 O
   0.1261384636163712    0.2460552453994751    0.9866368174552917 O
   0.0509405620396137    0.9566355943679811    0.3789746463298798 O
   0.5638505816459656    0.2746060490608215    0.1472831815481186 O
   0.5454655289649963    0.0056713940575719    0.6035854220390320 O
   0.9515620470046997    0.8570033311843873    0.7948256731033325 O
   0.4433482885360718    0.6412736177444458    0.4011233448982238 O
   0.5642306804656982    0.5272595286369324    0.8087463974952697 O
   0.0313307456672192    0.4550754725933075    0.5640627741813660 O
   0.5532034039497375    0.9846117496490479    0.9398339986801147 O
