K1 Na3 Sn1
1.0
   5.0421152114868164    0.0000000000000000    2.3616075515747070
   1.9461093549014676    4.6440571905384473    2.3608255386352535
   0.0000000000000000    0.0000000000000000    6.4805974960327148
K Na Sn
1 3 1
direct
   0.4454330205917358    0.5981450080871581    0.2215590775012971 K
   0.0445585586130619    0.1976331770420074    0.4223559796810150 Na
   0.2408798933029175    0.3922792673110962    0.8386367559432983 Na
   0.6425191760063171    0.7972407937049866    0.6312703490257263 Na
   0.8482356667518616    0.0001453077420592    0.0150882545858622 Sn
