Na18 Fe4 O15
1.0
   5.7684926986694336    0.0000000000000000   -0.6155632734298708
   0.0883834654579159    8.0145797761922832    0.1335303932428358
   0.0000000000000000    0.0000000000000000   11.2461585998535156
Na Fe O
18 4 15
direct
   0.8228675723075867    0.2797524034976960    0.4757011830806731 Na
   0.3561478257179260    0.2182185351848602    0.0502182729542255 Na
   0.0535053908824921    0.5892982482910156    0.6990200281143188 Na
   0.2710513770580292    0.5712797045707703    0.1651826500892639 Na
   0.3426283597946167    0.9486367106437684    0.1865958273410797 Na
   0.7355184555053711    0.6904117465019227    0.1689351499080658 Na
   0.5028434395790100    0.0516378767788410    0.7932152748107910 Na
   0.9882453680038452    0.9576650261878968    0.6483536958694458 Na
   0.4913583993911743    0.9608893394470216    0.4683957397937775 Na
   0.4389386475086212    0.4806165397167206    0.8750118017196655 Na
   0.9042358398437500    0.2575713396072388    0.7661597132682800 Na
   0.9220145344734192    0.4681604802608491    0.9965476989746094 Na
   0.9205435514450073    0.9697142839431764    0.3733905851840973 Na
   0.1489224433898926    0.6275047659873962    0.4278109371662140 Na
   0.2893581390380859    0.2817680835723878    0.3321637809276581 Na
   0.5579525232315063    0.6355580687522888    0.6603505611419678 Na
   0.8396653532981873    0.0406874865293503    0.0443614162504673 Na
   0.7040598392486572    0.7679665088653564    0.8990468382835388 Na
   0.1860687881708145    0.8581328988075257    0.9233825206756593 Fe
   0.3751053512096405    0.2659001946449280    0.5893713831901550 Fe
   0.7729691863059998    0.3266011476516724    0.2097409963607788 Fe
   0.6468341350555420    0.6147366166114807    0.4173808395862579 Fe
   0.9399055838584900    0.9917857646942140    0.8559299707412720 O
   0.4418876171112061    0.7446746826171875    0.3164834976196289 O
   0.6459423303604126    0.1345652490854263    0.6169352531433105 O
   0.4562671184539795    0.9602519273757935    0.9967638850212097 O
   0.8402316570281982    0.7457808852195740    0.5239748358726501 O
   0.3207356035709381    0.7652109861373902    0.7890755534172058 O
   0.0377492904663086    0.7551690936088562    0.0517250001430511 O
   0.4506253898143768    0.4617968797683716    0.4964248836040497 O
   0.5773283839225769    0.4413811564445496    0.0848361849784851 O
   0.2666873335838318    0.3183284997940063    0.7317371368408203 O
   0.6286970376968384    0.1473192721605301    0.2811051011085510 O
   0.8572721481323242    0.4940443634986878    0.3253219425678253 O
   0.0490642152726650    0.2629384100437165    0.1466130912303925 O
   0.1679452657699585    0.1287532746791840    0.4913287758827209 O
   0.7872396707534790    0.5196908116340637    0.8120781183242798 O
