Na4 Ga5 Te5 As4 O28
1.0
   5.1418032646179199    0.0000000000000000   -0.7868024110794065
   0.4162057154906340    9.0114736573509795   -0.0970382392406455
   0.0000000000000000    0.0000000000000000   14.7812728881835938
Na Ga Te As O
4 5 5 4 28
direct
   0.1817196458578110    0.4640988707542419    0.0222068559378386 Na
   0.3545550107955932    0.9494934678077698    0.6789854764938354 Na
   0.8058509230613708    0.4735858142375946    0.4283686876296997 Na
   0.2453862875699997    0.7407678365707397    0.4024319648742675 Na
   0.6861048340797424    0.2834236919879913    0.1401961445808411 Ga
   0.3564844429492950    0.9609717726707457    0.2149655669927597 Ga
   0.8479349017143250    0.1363599747419357    0.5694985985755920 Ga
   0.4544873833656311    0.7524668574333191    0.8800014257431029 Ga
   0.3995058834552765    0.0566546358168125    0.9983935952186583 Ga
   0.4659233391284943    0.4010288417339325    0.8176561594009398 Te
   0.3322857022285461    0.3682230114936829    0.5754269957542419 Te
   0.7389390468597412    0.6384304761886597    0.1980907917022705 Te
   0.8992393016815186    0.6700320839881897    0.7617785334587096 Te
   0.8802543282508850    0.0913244038820267    0.3339836895465851 Te
   0.9845223426818847    0.8266565203666687    0.0286985244601965 As
   0.1954604834318161    0.3876496255397797    0.2679884433746338 As
   0.7520589828491211    0.7947521209716796    0.5466510653495789 As
   0.0024787010625005    0.1795785874128342    0.8158567547798156 As
   0.1434601098299026    0.3576143980026245    0.8551981449127196 O
   0.7575933933258057    0.0793603584170341    0.4337571263313293 O
   0.1772297322750092    0.9727180600166321    0.0871171429753303 O
   0.2109506726264954    0.7511982321739196    0.7702742218971251 O
   0.5948417782783508    0.5475541949272156    0.8967371582984923 O
   0.8290899991989136    0.6517409682273865    0.6323103308677673 O
   0.9511629939079285    0.6909430623054504    0.1116609647870064 O
   0.0604577697813511    0.1612164974212646    0.7077711820602416 O
   0.5100170969963074    0.1887671053409576    0.5925202369689941 O
   0.0441799201071262    0.3285112679004669    0.1568366587162018 O
   0.4038760364055634    0.4583915472030640    0.6911215782165527 O
   0.1555665135383606    0.0447626411914825    0.8932306170463561 O
   0.1666191816329956    0.7261021137237549    0.9580589532852172 O
   0.1267973035573959    0.9612909555435181    0.3022080659866333 O
   0.4358780384063721    0.8406051993370056    0.5384699106216431 O
   0.5216095447540283    0.2393395751714706    0.0272592995315790 O
   0.6572424769401550    0.8876052498817444    0.9820394515991210 O
   0.9965922236442565    0.3196010589599609    0.5508525371551514 O
   0.8471857905387878    0.7231459617614746    0.4494231343269348 O
   0.6033425331115723    0.1222045943140984    0.2281351536512375 O
   0.0027002748101950    0.5668042898178101    0.2870079874992371 O
   0.6649740934371948    0.2110359221696853    0.8281556367874144 O
   0.9289944171905518    0.9400672316551207    0.6006035804748535 O
   0.4014075100421906    0.4681748151779175    0.4799777865409851 O
   0.5399764180183411    0.4870627820491791    0.1557670086622238 O
   0.6870640516281128    0.8224200606346129    0.7940821647644042 O
   0.5500919818878174    0.7800248265266418    0.2453049421310425 O
   0.0079657100141048    0.2802605628967285    0.3413958251476288 O
