Na3 Tl1 Te2
1.0
   4.7596373558044442    0.0000000000000000    0.0139032294973733
   0.0132685117386593    4.7681452196522294    0.0147074321284886
   0.0000000000000000    0.0000000000000000    7.9647469520568848
Na Tl Te
3 1 2
direct
   0.8287870883941650    0.7545349001884459    0.1972326934337616 Na
   0.3301489055156708    0.2550652325153351    0.8949661254882812 Na
   0.8313964009284973    0.2541359364986420    0.5473970770835876 Na
   0.3288690149784088    0.7528460025787354    0.5468068122863770 Tl
   0.3309147059917450    0.2553480267524719    0.2914951145648956 Te
   0.8294221162796021    0.7541666030883789    0.8029415011405945 Te
