Na16 Sn1 As8 Au2
1.0
   8.6641941070556641    0.0000000000000000   -1.8164248466491690
  -3.8050629871735850    7.8898580608719895   -1.5655837059021021
   0.0000000000000000    0.0000000000000000   10.0742502212524414
Na Sn As Au
16 1 8 2
direct
   0.3815391957759857    0.8148139119148254    0.8384352922439575 Na
   0.8458055853843689    0.9564378261566162    0.8480964899063110 Na
   0.7421594262123108    0.1938829272985458    0.0851611644029617 Na
   0.9008756875991821    0.6653814911842346    0.1652828305959702 Na
   0.1468992382287979    0.5491461753845215    0.3897314965724945 Na
   0.6456384062767029    0.7278271317481995    0.3954156339168549 Na
   0.3916001617908478    0.2958808541297913    0.4011908173561096 Na
   0.1156052947044373    0.9238302707672119    0.6082618832588196 Na
   0.2181980013847351    0.3375108242034912    0.7352991700172424 Na
   0.8777456879615784    0.3375660777091980    0.8355885148048401 Na
   0.9772068262100220    0.0590165294706821    0.2912741899490356 Na
   0.5700219273567200    0.0235264748334885    0.2942579090595245 Na
   0.2273178249597549    0.0362363830208778    0.0555234290659428 Na
   0.5211812257766724    0.0015680410433561    0.6003904342651367 Na
   0.2480334937572479    0.6524338722229004    0.0936336591839791 Na
   0.4653223752975464    0.4243189990520477    0.0938818827271461 Na
   0.6380447745323181    0.5615722537040710    0.8506216406822205 Sn
   0.9881547093391418    0.7022950053215027    0.8578798770904541 As
   0.4732214212417603    0.6083003878593445    0.6227771639823914 As
   0.2382144778966904    0.9096591472625732    0.3411571383476257 As
   0.7379828691482544    0.4313811957836151    0.3378294408321381 As
   0.4910494685173035    0.2161701321601868    0.8473213315010071 As
   0.6261186003684998    0.7858752608299255    0.0761943012475968 As
   0.1071641594171524    0.2993669807910919    0.1097879260778427 As
   0.8743671178817749    0.0685551390051842    0.5814670324325562 As
   0.7796387672424316    0.5756655931472778    0.6063653826713562 Au
   0.8633478879928589    0.3012417256832123    0.5029484629631042 Au
