Na3 Cu1 Si3 H1 O9
1.0
   5.8696556091308594    0.0000000000000000    0.9618327617645264
   0.3047025252018710    5.2987657934095207    0.9823771715164181
   0.0000000000000000    0.0000000000000000    7.0324511528015137
Na Cu Si H O
3 1 3 1 9
direct
   0.1645282506942749    0.2008982598781586    0.4930958151817321 Na
   0.8082740902900697    0.2733425199985504    0.0960683971643448 Na
   0.7142907977104187    0.6412848830223083    0.4518436193466186 Na
   0.1695088595151901    0.6970086097717285    0.6752874851226807 Cu
   0.6616862416267395    0.0521011650562286    0.6568279266357422 Si
   0.1851041615009308    0.7407937049865723    0.1808310896158218 Si
   0.3344934582710266    0.2883222401142120    0.9638262987136840 Si
   0.8899149894714357    0.8006756305694580    0.9802647233009337 H
   0.4399257898330689    0.8991477489471437    0.6349214911460876 O
   0.3680960536003113    0.5305820107460022    0.0739375501871109 O
   0.1361241638660431    0.3588820993900299    0.8304061293601989 O
   0.2724364697933197    0.0351031199097633    0.1344162821769714 O
   0.8682295083999635    0.8636465668678284    0.7336363196372986 O
   0.9212772846221925    0.7537876963615417    0.1196707263588905 O
   0.1602948457002640    0.6355881690979004    0.4114687442779540 O
   0.7523383498191835    0.2216707766056061    0.4466077387332916 O
   0.5855143666267395    0.2320485711097718    0.8342270851135253 O
