Na1 Sb1 W1 O6
1.0
   5.0697250366210938    0.0000000000000000    2.9516263008117671
   1.7057647531017042    4.7757818950235551    2.9417068958282466
   0.0000000000000000    0.0000000000000000    5.8513488769531250
Na Sb W O
1 1 1 6
direct
   0.9954674243927002    0.6362317204475403    0.3165840506553650 Na
   0.7454266548156738    0.3861922025680542    0.0664549171924591 Sb
   0.2461525797843933    0.8866459727287292    0.5662970542907715 W
   0.0114845186471939    0.1205915585160256    0.8013674020767213 O
   0.4801066815853119    0.1214085891842842    0.3319450914859772 O
   0.4799138605594634    0.6523778438568116    0.3319642245769501 O
   0.4799206852912903    0.6518748402595520    0.8012225627899171 O
   0.0111211361363530    0.6519228219985963    0.8015037178993226 O
   0.0112952617928386    0.1213529556989670    0.3319244980812073 O
