Na11 Mg1 Cu3 O8
1.0
   5.7924184799194336    0.0000000000000000   -0.6874543428421033
  -2.8902078497600883    7.7292844549891253   -0.3405481576919556
   0.0000000000000000    0.0000000000000000    8.2996597290039062
Na Mg Cu O
11 1 3 8
direct
   0.2028383165597916    0.7523214221000671    0.0715549588203430 Na
   0.7097486257553101    0.4966254532337189    0.5987761616706848 Na
   0.8883072137832642    0.8429635167121888    0.6975240707397461 Na
   0.9780391454696655    0.3652051091194153    0.9743881225585938 Na
   0.2731314897537231    0.5991502404212952    0.7659869790077209 Na
   0.3031503260135651    0.1959425508975983    0.9891507625579834 Na
   0.5920559167861938    0.0808352977037430    0.6340827345848083 Na
   0.6742655038833618    0.8108296990394592    0.3181231915950775 Na
   0.1364875733852386    0.1886848807334900    0.5873231887817383 Na
   0.3382269442081451    0.4469926655292511    0.3040511608123779 Na
   0.7452211380004883    0.9952952861785890    0.0052207079716027 Na
   0.2463006228208542    0.0695887133479118    0.3071810603141785 Mg
   0.7419981956481934    0.2086025327444077    0.2965944409370422 Cu
   0.6723195314407349    0.5855385661125183    0.9669601321220398 Cu
   0.2404687106609344    0.7617724537849426    0.4785884916782379 Cu
   0.9182530641555786    0.6080939769744874    0.8481302261352539 O
   0.5230481624603271    0.2556019723415375    0.4392730891704559 O
   0.9440956711769104    0.1245319321751595    0.8018530607223511 O
   0.4068073928356171    0.5661528706550598    0.0583299994468689 O
   0.4580691754817963    0.0216696020215750    0.1575732827186584 O
   0.4678708314895630    0.6680666804313660    0.5309588909149170 O
   0.0176601689308882    0.1878219842910767    0.2114669233560562 O
   0.0718233510851860    0.9110030531883240    0.4585257172584534 O
