Na6 Mn1 Cu1 P4 O16
1.0
   6.9114503860473633    0.0000000000000000    0.0492620542645455
  -0.2232426184352838    5.4813800765336635   -0.1514439284801481
   0.0000000000000000    0.0000000000000000    8.6789684295654297
Na Mn Cu P O
6 1 1 4 16
direct
   0.5431707501411438    0.9130557179450989    0.1105208322405815 Na
   0.5432866811752319    0.4129546880722046    0.6100732088088989 Na
   0.7910490632057190    0.4215055108070374    0.2961160540580750 Na
   0.2952361404895782    0.4055231213569641    0.9241212010383606 Na
   0.2980830669403076    0.9105435013771057    0.4243975281715393 Na
   0.7883608937263489    0.9140760898590087    0.7956880331039428 Na
   0.0430447869002819    0.9128437638282775    0.1097111850976944 Mn
   0.0436182767152786    0.4133424758911132    0.6100397109985352 Cu
   0.2808413803577423    0.8997088074684142    0.7614130377769470 P
   0.8060160875320435    0.4087675511837006    0.9540692567825317 P
   0.8060342073440552    0.9274744987487792    0.4589626789093018 P
   0.2806856036186218    0.4173544049263000    0.2662803232669830 P
   0.8210750222206116    0.1861472129821777    0.0614807605743408 O
   0.9792184829711915    0.9129994511604308    0.3477087914943695 O
   0.2569182515144348    0.6636524796485901    0.6561527252197266 O
   0.4662031233310700    0.8878114223480225    0.8515523076057434 O
   0.9782631993293763    0.4093894660472870    0.8371599912643433 O
   0.1080120727419853    0.9117252826690673    0.8728049993515015 O
   0.6210457086563110    0.9390447139739989    0.3685699701309204 O
   0.2828148007392883    0.1206815093755722    0.6568589210510254 O
   0.2659983038902283    0.6403540968894958    0.1591603904962540 O
   0.6176980137825012    0.3984676897525787    0.8696072101593018 O
   0.1083147451281548    0.4172208309173583    0.3838869333267212 O
   0.4686559140682221    0.4288847148418427    0.3512371778488159 O
   0.8161851763725281    0.6413452625274658    0.0586048029363155 O
   0.8298060297966003    0.1645168662071228    0.5629355907440187 O
   0.2704830467700958    0.1844138056039810    0.1616864353418350 O
   0.8032158017158508    0.7063344120979309    0.5640842318534851 O
