Na2 Al1 Ag1 F7
1.0
   4.7890105247497567    0.0000000000000000    2.9382510185241695
   1.7549353758608526    5.7513386565463618    3.2327289581298828
   0.0000000000000000    0.0000000000000000    5.6078763008117676
Na Al Ag F
2 1 1 7
direct
   0.2123634368181229    0.0316528305411339    0.3763149976730347 Na
   0.6678962707519532    0.7198854684829712    0.8264048099517822 Na
   0.9410094022750854    0.8775705099105834    0.1025275290012360 Al
   0.4408354163169861    0.3764483630657196    0.6019862890243530 Ag
   0.1628810167312622    0.7131685614585876    0.8548380136489868 F
   0.6896067261695862    0.7110179662704467    0.3272589445114136 F
   0.7177355289459229    0.0422097817063332    0.3508658409118653 F
   0.9413558840751648    0.3763400018215179    0.1037433892488479 F
   0.7262845039367676    0.0645663961768150    0.8796301484107971 F
   0.1559383869171143    0.6903722882270813    0.3257584571838379 F
   0.1937000751495361    0.0433988943696022    0.8777227401733398 F
