Na7 Nd1 Ga7 Sb1 S17
1.0
   7.1212959289550781    0.0000000000000000    0.6045283675193791
   0.2155130845204451    7.5683471390901982    0.1488277018070207
   0.0000000000000000    0.0000000000000000   14.6702623367309570
Na Nd Ga Sb S
7 1 7 1 17
direct
   0.8162308335304261    0.6784963011741638    0.9723560810089111 Na
   0.3864433765411378    0.9345231056213379    0.3082216382026672 Na
   0.2059185057878495    0.0710377246141434    0.6425724625587463 Na
   0.7734155058860780    0.5006604194641113    0.2275240570306778 Na
   0.6632465720176697    0.2503059804439545    0.7090891599655151 Na
   0.0135368052870035    0.6011093854904175    0.6665685176849365 Na
   0.1926103979349137    0.5426689386367799    0.4181174337863922 Na
   0.4249930679798127    0.1365159600973129    0.0479370169341564 Nd
   0.9058396220207215    0.1669525653123856    0.9315279126167297 Ga
   0.7209976911544800    0.8533466458320619    0.4940130710601807 Ga
   0.6122403740882874    0.3879352509975434    0.4909365773200989 Ga
   0.2813112437725067    0.5146276950836182    0.8589843511581421 Ga
   0.5195043683052063    0.8171738982200623    0.7793728709220886 Ga
   0.9754100441932679    0.1384840756654740    0.4330115616321564 Ga
   0.3136603832244873    0.6081987023353577    0.1423239856958389 Ga
   0.9206095933914186    0.0134531855583191    0.1829876899719238 Sb
   0.3799429833889008    0.3293807804584503    0.2214428335428238 S
   0.6299172639846802    0.0305265672504902    0.8779004216194153 S
   0.0792643576860428    0.9671406149864198    0.0192519221454859 S
   0.0782837793231010    0.7276149392127991    0.2405638545751572 S
   0.7490475177764893    0.3292959332466125    0.0496451593935490 S
   0.0953814387321472    0.2399846911430359    0.2895484864711761 S
   0.6017057299613953    0.9002310037612915    0.6359242796897888 S
   0.3656130731105804    0.3886125981807709    0.5900111198425293 S
   0.0908903479576111    0.2864559292793274    0.8070861101150513 S
   0.2243837863206864    0.4796444177627563    0.0119488527998328 S
   0.0541261285543442    0.8696439266204835    0.4961122572422028 S
   0.6574826240539551    0.1202585846185684    0.3988285362720490 S
   0.1904928684234619    0.7839295864105225    0.7994761466979980 S
   0.5518267750740051    0.8067196607589722    0.1262663900852203 S
   0.6130999326705933    0.5456569790840149    0.8210865259170532 S
   0.6027344465255737    0.6445916295051575    0.3985298275947571 S
   0.9079228043556214    0.3546584546566010    0.5451849699020386 S
