Na21 Ga2 As9
1.0
   8.4759988784790039    0.0000000000000000   -0.1555221229791663
  -1.3478270783564097    7.4291177807003654   -3.8795499801635738
   0.0000000000000000    0.0000000000000000   11.9613952636718750
Na Ga As
21 2 9
direct
   0.7980970740318298    0.3679124116897583    0.4982122778892517 Na
   0.6982951164245605    0.7392096519470215    0.3072381615638733 Na
   0.4542195200920105    0.0474158190190792    0.3551219105720520 Na
   0.8033202886581421    0.3615769147872925    0.7671924233436584 Na
   0.6001640558242798    0.0083607388660312    0.5778838992118835 Na
   0.5027447342872620    0.3524250090122223    0.0959144458174706 Na
   0.6025561094284058    0.0101626254618168    0.0839560776948929 Na
   0.1520669311285019    0.2637792825698852    0.4091546237468719 Na
   0.4615207910537720    0.3776786923408508    0.8416585922241211 Na
   0.2757157981395721    0.0190556589514017    0.8931286931037903 Na
   0.1484275758266449    0.4179321825504303    0.6990724802017212 Na
   0.0461714826524258    0.8405091762542723    0.2531744241714477 Na
   0.3655427694320679    0.6917941570281982    0.1056350320577621 Na
   0.6866909265518188    0.7083080410957336    0.7856907248497009 Na
   0.3612794578075408    0.7032097578048705    0.6215792894363402 Na
   0.9447867870330811    0.0573013797402382    0.0286647602915764 Na
   0.0532783269882202    0.7097268104553223    0.9570202231407166 Na
   0.0077221272513270    0.6884055137634276    0.4555793404579163 Na
   0.4950510859489440    0.4183135032653809    0.3619962036609650 Na
   0.1506100893020630    0.4071944653987885    0.1954281181097031 Na
   0.2476992309093475    0.0424690246582031    0.5826991200447081 Na
   0.9322754144668579    0.0291490647941828    0.7392137646675110 Ga
   0.8340887427330017    0.3946040868759155    0.0284642186015844 Ga
   0.4689361453056335    0.3702971339225768    0.5955562591552734 As
   0.8084478378295898    0.3769644200801849    0.2391802072525024 As
   0.3561548888683319    0.7212824821472168    0.3736494481563568 As
   0.0193056408315897    0.7351501584053038    0.7141199707984924 As
   0.9243227839469910    0.0635404214262962    0.5246258974075317 As
   0.6443477272987366    0.0803735479712486    0.8458836078643799 As
   0.2660561800003052    0.0547479763627052    0.1532753258943558 As
   0.7203027606010437    0.6668045520782471    0.0373186394572258 As
   0.1091569736599922    0.3389665782451629    0.9209830760955811 As
