Na6 Sn2 O7                              
   1.00000000000000     
     6.8719944699444193   -0.0517274286574689   -0.1922178627492939
    -1.8377122388995621    5.4037002456547842   -1.1622529192555995
     0.0052458693462369   -0.0066148841752545    5.8518060690456686
   Na   Sn   O 
     6     2     7
Direct
  0.7146943142517769  0.9094096363915520  0.7053596813174172
  0.0936051811148877  0.3936450963915569  0.9406891216288253
  0.8351637255975959  0.4133660525415050  0.4898440747736096
  0.2312012062566575  0.9112104924966478  0.7468775372766154
  0.6113790851705657  0.3983686271623056  0.9733962564707836
  0.4846776865531563  0.8968201393218371  0.1962837993297991
  0.9542838515382200  0.9243174870350713  0.1989896079760705
  0.3557853257808724  0.3695241396677286  0.4860182443835517
  0.7087851539794688  0.6855685549445311  0.3299104394961719
  0.5158793369061475  0.1616042337313177  0.5828021716375650
  0.8019001975252373  0.1544439593234737  0.0949974654218259
  0.3957109338227605  0.6234093061521154  0.7989152074881148
  0.9319007077469652  0.6806159127078395  0.8801095123543716
  0.2620428771434716  0.1482510609280222  0.1403333637068176
  0.0593558119495601  0.1521613436039029  0.5460336731434337
 
  0.00000000E+00  0.00000000E+00  0.00000000E+00
  0.00000000E+00  0.00000000E+00  0.00000000E+00
  0.00000000E+00  0.00000000E+00  0.00000000E+00
  0.00000000E+00  0.00000000E+00  0.00000000E+00
  0.00000000E+00  0.00000000E+00  0.00000000E+00
  0.00000000E+00  0.00000000E+00  0.00000000E+00
  0.00000000E+00  0.00000000E+00  0.00000000E+00
  0.00000000E+00  0.00000000E+00  0.00000000E+00
  0.00000000E+00  0.00000000E+00  0.00000000E+00
  0.00000000E+00  0.00000000E+00  0.00000000E+00
  0.00000000E+00  0.00000000E+00  0.00000000E+00
  0.00000000E+00  0.00000000E+00  0.00000000E+00
  0.00000000E+00  0.00000000E+00  0.00000000E+00
  0.00000000E+00  0.00000000E+00  0.00000000E+00
  0.00000000E+00  0.00000000E+00  0.00000000E+00
