Cs5 V2 F13
1.0
   6.3801369667053223    0.0000000000000000    1.9545469284057613
   2.9339545736337413    5.6807678000473398    1.9498891830444325
   0.0000000000000000    0.0000000000000000   11.3964099884033203
Cs V F
5 2 13
direct
   0.6169659495353699    0.6111812591552734    0.0000039302976802 Cs
   0.4841978251934051    0.4783739149570465    0.3975008726119995 Cs
   0.1980273425579071    0.1914850324392319    0.2567361593246460 Cs
   0.7721065282821654    0.7647070884704590    0.5374743342399597 Cs
   0.3521312773227692    0.3456209301948547    0.7952358722686768 Cs
   0.0703089684247971    0.0620817951858044    0.6433430314064026 V
   0.8995645046234130    0.8934136629104614    0.1521764248609543 V
   0.9849975109100341    0.9779222011566162    0.8971436619758606 F
   0.8207906484603881    0.2369889318943024    0.5430400371551514 F
   0.6569552421569824    0.0740036070346832    0.0332823619246483 F
   0.2444488406181335    0.8135219812393190    0.5431514978408813 F
   0.0802511200308800    0.0739034861326218    0.0330058895051479 F
   0.8895449042320249    0.8828306794166566    0.7620437145233154 F
   0.3131907880306244    0.8819608688354492    0.7617923617362976 F
   0.0798328220844269    0.6513316035270691    0.0334166139364243 F
   0.7260760068893433    0.1424245387315750    0.2514587342739105 F
   0.1492200493812561    0.7190641760826111    0.2516085803508759 F
   0.2441999614238739    0.2368359416723251    0.5433230400085449 F
   0.7258456349372864    0.7195144295692445    0.2514135539531708 F
   0.8891631364822387    0.3056239187717438    0.7616526484489441 F
