Na2 Mg1 V3 O8                           
   1.00000000000000     
     5.8812978755226419    0.0034309979229075    0.0468390869891725
    -2.8608874471784258    4.8925036770738632   -1.5934995462268218
     0.0125424516938147    0.1108023082738033    6.0742389462045541
   Na   Mg   V    O 
     2     1     3     8
Direct
  0.3194415231932807  0.7050751189720059  0.4257699259399882
  0.8165624182155737  0.2064021013349397  0.4245186093656608
  0.5711284304477884  0.2099930977400262  0.9389586281291289
  0.0678268524345081  0.7137835139104571  0.9421689286124241
  0.5669219416324797  0.6896488985893466  0.9071415004128651
  0.0747451012772300  0.1965300706336433  0.9081073646137056
  0.7095784196254948  0.9730794134730215  0.7384600086810417
  0.4249100533905483  0.9132098150025982  0.1112463797530646
  0.2014631429646394  0.4776100686762212  0.7315946924883056
  0.9260395456096907  0.9350681125900348  0.1019464571045925
  0.7246348140542997  0.4951436899900025  0.7546323927092622
  0.9523696668668346  0.4370748456989226  0.1104717248398766
  0.1963133640758196  0.9679322208268233  0.7539850633048304
  0.4143490608713957  0.4402125376631607  0.0930296032515368
 
  0.00000000E+00  0.00000000E+00  0.00000000E+00
  0.00000000E+00  0.00000000E+00  0.00000000E+00
  0.00000000E+00  0.00000000E+00  0.00000000E+00
  0.00000000E+00  0.00000000E+00  0.00000000E+00
  0.00000000E+00  0.00000000E+00  0.00000000E+00
  0.00000000E+00  0.00000000E+00  0.00000000E+00
  0.00000000E+00  0.00000000E+00  0.00000000E+00
  0.00000000E+00  0.00000000E+00  0.00000000E+00
  0.00000000E+00  0.00000000E+00  0.00000000E+00
  0.00000000E+00  0.00000000E+00  0.00000000E+00
  0.00000000E+00  0.00000000E+00  0.00000000E+00
  0.00000000E+00  0.00000000E+00  0.00000000E+00
  0.00000000E+00  0.00000000E+00  0.00000000E+00
  0.00000000E+00  0.00000000E+00  0.00000000E+00
