Generated by VASPKIT code
 1.000000
    3.1705762657084220    0.0013667860439866   -0.0011975258883827
   -0.0030379381196485    5.3841163131892422   -1.8160722648669074
    0.0027515490316964   -0.0221150183109521    5.6812857760979574
   Pt   O 
     1     4
Direct
    0.3073884386446110    0.9557851948007253    0.1527948968862888    Pt001
    0.3072055304227554    0.1707100311618058    0.9380442013973068     O001
    0.8072906347638462    0.1583338707349519    0.3552928949955053     O002
    0.3075177679662442    0.7410324818166882    0.3675940551734710     O003
    0.8073373802668896    0.7530986361368948    0.9501391054698298     O004
