Na2 Au1 C2 O6
1.0
   4.7152862548828125    0.0000000000000000    1.9857490062713621
   1.9669718300649495    4.2802677916466676    1.9956938028335574
   0.0000000000000000    0.0000000000000000    6.6063656806945801
Na Au C O
2 1 2 6
direct
   0.3940413892269134    0.2775888741016388    0.4588480293750762 Na
   0.0221990123391151    0.9062333703041077    0.5684379339218140 Na
   0.2065311670303344    0.0918490812182426    0.0132664330303669 Au
   0.6248617768287659    0.5099945068359375    0.7615379691123962 C
   0.7902004718780518    0.6724798083305359    0.2657943367958069 C
   0.5919482707977295    0.2772076427936554    0.7551064491271973 O
   0.0224797278642654    0.4001868963241577    0.2700077295303345 O
   0.5207447409629822    0.7050851583480835    0.2686010003089905 O
   0.3920790255069733    0.7820593714714050    0.7550442218780518 O
   0.8946502804756165    0.4745109081268310    0.7595563530921936 O
   0.8253661394119262    0.9056205153465270    0.2706128656864167 O
