Na18 Fe5 O19
1.0
   6.0415110588073730    0.0000000000000000   -0.3892700076103208
  -1.3066404196847248    9.6350350017510760    0.3044054508209236
   0.0000000000000000    0.0000000000000000   10.0656194686889648
Na Fe O
18 5 19
direct
   0.3707614839076996    0.4932943880558013    0.5496283173561096 Na
   0.8543201684951782    0.4670855402946472    0.0946856737136841 Na
   0.5590833425521851    0.6836279630661011    0.9862276315689087 Na
   0.2269965112209320    0.8665261268615723    0.6133149266242981 Na
   0.4946607947349548    0.1776671111583710    0.1194407194852829 Na
   0.8699131011962891    0.9636899828910827    0.8317952156066895 Na
   0.5067313313484192    0.0993840619921684    0.7950104475021362 Na
   0.7709702849388123    0.3612880706787109    0.7199922800064087 Na
   0.2679525613784790    0.8975856304168701    0.9678481221199036 Na
   0.3576614260673523    0.3987601101398467    0.8626736402511597 Na
   0.9053139686584473    0.5654710531234741    0.4349183142185211 Na
   0.8077951669692993    0.9476271867752074    0.4819095432758331 Na
   0.5424887537956238    0.2174391001462936    0.4745425283908844 Na
   0.5596092343330383    0.6920100450515747    0.3182180225849152 Na
   0.9581804275512695    0.2308323830366135    0.3451955616474152 Na
   0.3148806393146514    0.9540795683860778    0.3425094783306122 Na
   0.7549831271171570    0.9459401369094849    0.1657691895961761 Na
   0.9780495762825012    0.6203529834747313    0.8395798206329346 Na
   0.3388241827487946    0.4295272827148438    0.2143154740333557 Fe
   0.0200317446142435    0.2196196764707566    0.9961444139480591 Fe
   0.0980019047856331    0.7301228046417236    0.1848185509443283 Fe
   0.6108753681182861    0.7371797561645508    0.6874812841415405 Fe
   0.0998572111129761    0.2101947814226150    0.6051378846168518 Fe
   0.2112616300582886    0.1129755675792694    0.9342710971832275 O
   0.7551494836807251    0.1135749369859695    0.9898508191108704 O
   0.5380554795265198    0.4461798667907715    0.3581763207912445 O
   0.9445298910140991    0.7419626116752625    0.0283302627503872 O
   0.1513146311044693    0.2611961066722870    0.1678452789783478 O
   0.4800730347633362    0.7516917586326599    0.5252879858016968 O
   0.5016155242919922    0.4615491926670074    0.0697391629219055 O
   0.1753281205892563    0.0752604082226753    0.5043522119522095 O
   0.9474872946739197    0.7953313589096069    0.3137679994106293 O
   0.8275895714759827    0.1273063272237778    0.6577550768852234 O
   0.5946075916290283    0.5642364621162415    0.7577919363975525 O
   0.4739098846912384    0.8396223187446594    0.7994407415390015 O
   0.9908021688461304    0.3869769573211670    0.9140212535858154 O
   0.1230317950248718    0.5480660796165466    0.2493802458047867 O
   0.8990406394004822    0.7786141633987427    0.6738460063934326 O
   0.6438114047050476    0.0833453759551048    0.3184155821800232 O
   0.0084636863321066    0.3709988296031952    0.5438764095306396 O
   0.3845063149929047    0.8087522983551024    0.1575680524110794 O
   0.3828298747539520    0.2780143618583679    0.6698222756385803 O
