Na6 V2 Se7                              
   1.00000000000000     
     3.8181422908337961   -0.0092584553806149   -0.5205310730844082
    -1.6608395489862426    6.8745905853564935    1.5592399196338373
     0.0168059210081881   -0.1084202844318867   14.0010441558985885
   Na   V    Se
     6     2     7
Direct
  0.3916196213434430  0.1860246552239158  0.4817303334704971
  0.4958357736398645  0.9802838504811240  0.9034863175014605
  0.5967663546036565  0.6618993589002170  0.4243782306229699
  0.2650325625964224  0.3927977307225995  0.0271508709338087
  0.0178970202665703  0.7662462163109867  0.1590238336299471
  0.7288598634388090  0.6011241209359411  0.7507285437091697
  0.7697554627448256  0.1750607517906406  0.2578915004721841
  0.9821729718548395  0.1655220200202568  0.6839907455674804
  0.3779781682987591  0.9556399858129618  0.6811195028267620
  0.2014480023840351  0.9545726775202782  0.3419845930876452
  0.1115848758812392  0.2919775173697479  0.8234815369700164
  0.6563681205429936  0.0912723863016373  0.1081730999756929
  0.3934853221473256  0.4235674962932542  0.2559393788776385
  0.0450084419892733  0.4225639180141135  0.5525023895587573
  0.8755895051096644  0.6851634329360733  0.9567266583698100
 
  0.00000000E+00  0.00000000E+00  0.00000000E+00
  0.00000000E+00  0.00000000E+00  0.00000000E+00
  0.00000000E+00  0.00000000E+00  0.00000000E+00
  0.00000000E+00  0.00000000E+00  0.00000000E+00
  0.00000000E+00  0.00000000E+00  0.00000000E+00
  0.00000000E+00  0.00000000E+00  0.00000000E+00
  0.00000000E+00  0.00000000E+00  0.00000000E+00
  0.00000000E+00  0.00000000E+00  0.00000000E+00
  0.00000000E+00  0.00000000E+00  0.00000000E+00
  0.00000000E+00  0.00000000E+00  0.00000000E+00
  0.00000000E+00  0.00000000E+00  0.00000000E+00
  0.00000000E+00  0.00000000E+00  0.00000000E+00
  0.00000000E+00  0.00000000E+00  0.00000000E+00
  0.00000000E+00  0.00000000E+00  0.00000000E+00
  0.00000000E+00  0.00000000E+00  0.00000000E+00
