Generated by VASPKIT code
 1.000000
    6.5304431415577220    0.2392482312377316    0.3379286799740341
    1.5126789282618966    8.1230636366054512    0.0316186276847006
    0.1664554372484798   -0.3541521168985053    6.3625767261333808
   Os   N 
     3     7
Direct
    0.0537939282624070    0.0713441567333167    0.6749049456304760    Os001
    0.5534493029427782    0.6678021804030280    0.1068151882444927    Os002
    0.3365449789760965    0.4683311999890509    0.3009318203218028    Os003
    0.9292306724912320    0.1230562477911759    0.4389985723059860     N001
    0.2012033836665800    0.5293601190285783    0.5546334058933960     N002
    0.2643043630649765    0.6426313030291851    0.1067134998046573     N003
    0.4355188601229437    0.2617615285016463    0.1928132703850494     N004
    0.3058175700339807    0.0542491878043601    0.7741238537027764     N005
    0.6084620201217948    0.8256038930516231    0.2768611585230304     N006
    0.6987329613414680    0.6095024561503060    0.8593626192361787     N007
