Na3 Hf1 Sb1 O6
1.0
   5.3263897895812988    0.0000000000000000   -1.4000544548034672
  -2.5646092613247915    4.6580038162256949   -1.3414916992187500
   0.0000000000000000    0.0000000000000000    5.5499958992004395
Na Hf Sb O
3 1 1 6
direct
   0.4670166671276093    0.7671554684638977    0.9626187682151796 Na
   0.6243282556533813    0.6038601398468018    0.4681757390499116 Na
   0.9313995242118835    0.3015451729297638    0.4590445160865784 Na
   0.1031422093510628    0.1321818977594376    0.9612370133399964 Hf
   0.2879058420658112    0.9435296058654785    0.4602327644824982 Sb
   0.4564267694950104    0.1480566710233688    0.2363784164190293 O
   0.9382284879684448    0.9123190641403198    0.1983902156352997 O
   0.0861908644437790    0.7781112790107727    0.6855203509330750 O
   0.6856833100318909    0.0274438764899969    0.7038776874542236 O
   0.3229064047336578    0.2953975498676300    0.7208035588264465 O
   0.2069350183010101    0.5488617420196533    0.2184094488620758 O
