Generated by VASPKIT code
 1.000000
    6.8605593185575522   -0.2970312726086748   -0.2912835807129398
   -0.5694175047687613    7.6712340339080987    0.0351953236920856
   -0.5545880390213833   -0.2003128528829045    8.7294708874635099
   Mg   Sn   S 
     1     2     8
Direct
    0.0389545939713138    0.8778296659286836    0.1125667431852170    Mg001
    0.6274193718903965    0.7225949376625335    0.2909827516605282    Sn001
    0.3094766369701146    0.1118994444162898    0.8505719272870154    Sn002
    0.2215955646134768    0.1883038014749026    0.1056470676181810     S001
    0.6476166980840072    0.0798192586681775    0.8390116081936960     S002
    0.7437510228572168    0.6116733968554298    0.0614960438069368     S003
    0.2026355295476985    0.3376840374841200    0.6854379639527892     S004
    0.2690046894160613    0.6916007433326221    0.2689484257958002     S005
    0.8442104508122588    0.9931592923157315    0.3274459841002869     S006
    0.7023173944833436    0.5347129221854734    0.5013789372880196     S007
    0.1140634139041363    0.8260016724989973    0.8316943524904068     S008
