K2 Na1 Cu1 F7
1.0
   5.2686715126037589    0.0000000000000000    3.4573924541473389
   1.8349211999349679    4.9378825465279634    3.4083073139190669
   0.0000000000000000    0.0000000000000000    6.3342189788818359
K Na Cu F
2 1 1 7
direct
   0.1576556414365769    0.2804704606533051    0.8003990650177002 K
   0.6979476213455200    0.8176222443580627    0.3418297767639160 K
   0.4728164672851562    0.5932537317276001    0.1228609904646873 Na
   0.9401051402091980    0.0621100664138794    0.5830596685409546 Cu
   0.7143933176994323    0.8338209986686707    0.8269090056419373 F
   0.1864683479070663    0.3052127659320831    0.3402066230773926 F
   0.6940855383872986    0.3022395670413970    0.8265559673309326 F
   0.3204567134380341    0.4403458237648010    0.9619788527488708 F
   0.1800128221511841    0.8144846558570861    0.8274755477905273 F
   0.7143951058387755    0.2989974319934845    0.3620891571044922 F
   0.1770755499601365    0.8378958702087401    0.3599843978881836 F
