Na8 Nb1 In3 Si4 P2 O24                  
   1.00000000000000     
     7.9628352649377678   -0.0081174322552806   -4.6705801553250970
    -5.2216084583156981    7.4074133372037068   -0.0988752790020613
     0.0127816842334245   -0.0330521169629740    9.4301111135084348
   Na   Nb   In   Si   P    O 
     8     1     3     4     2    24
Direct
  0.6359216877073932  0.0321325679428413  0.3605296650950767
  0.9879613236218487  0.4714389969226465  0.9497568181467576
  0.1723860586507750  0.8495026485002671  0.2823636651304209
  0.0242363974234705  0.1536987145748621  0.1814614065213762
  0.3297587619543305  0.1995706344090807  0.7786195024264069
  0.5482649369229751  0.5004354467929835  0.2347579579003946
  0.0835156192007686  0.7592500411903165  0.7203135476577373
  0.3403302617710439  0.6344672630699041  0.6371972778594071
  0.8665261597172387  0.9667334833700058  0.7263144544360689
  0.4638975399358665  0.7743619942598067  0.0237851312062218
  0.8578845369012539  0.4519494977498242  0.2210093186322492
  0.4695021269961125  0.2820040329789799  0.5175127847312150
  0.6335641108704135  0.0843111517704338  0.8574879384890149
  0.3580083294511628  0.1010757067027152  0.0968101592902056
  0.9432041040985634  0.8965343090857228  0.4024694993779127
  0.3688891467659392  0.6096276034793294  0.3384014678379872
  0.6961908039592641  0.6209256950505160  0.8774826060606972
  0.9495971000581876  0.3796347423425033  0.6260212658030805
  0.3303768430004453  0.9117128223011349  0.0470224824207955
  0.7563135609934388  0.9151322402244145  0.2668697273648658
  0.8111314324348277  0.4264082591886932  0.6323495610407167
  0.3984081174777149  0.1290938829435201  0.2885317775084437
  0.5865830219393144  0.8047678616856858  0.5015399063331625
  0.5368974505886779  0.1541880698492771  0.7021989833516826
  0.7764704916913554  0.0306145366205917  0.8417446508417110
  0.8557364169959527  0.5944240711824088  0.0212622044657428
  0.1474908644687252  0.0560341182901596  0.4165945443532124
  0.1732451400244850  0.5367255504974292  0.7753783170322973
  0.8104496435182909  0.2450522523574097  0.0519243931355066
  0.5326339431152400  0.2824939297327593  0.0950742092869363
  0.4429508084188982  0.8960541546006647  0.8308846099699053
  0.5011457925358461  0.4438961459527457  0.7201504340584153
  0.9002789033445994  0.6957364008248353  0.3582303297890604
  0.3783389230176407  0.4363839688087611  0.3696606644803793
  0.1875840360261646  0.6039946540759893  0.3378166409653472
  0.9166622500962978  0.3579505347687572  0.4473583385369438
  0.9071384072316497  0.1979912805420298  0.6580312364234738
  0.6238285412666399  0.6994179662320308  0.9489644521501845
  0.8067865681020909  0.7486180044462114  0.8009391617627855
  0.1455621772968761  0.0853488694512802  0.9413718106528168
  0.9812362464506676  0.9395022649103113  0.5983624462106276
  0.3410769957471662  0.6112137217501097  0.1515400149095028
 
  0.00000000E+00  0.00000000E+00  0.00000000E+00
  0.00000000E+00  0.00000000E+00  0.00000000E+00
  0.00000000E+00  0.00000000E+00  0.00000000E+00
  0.00000000E+00  0.00000000E+00  0.00000000E+00
  0.00000000E+00  0.00000000E+00  0.00000000E+00
  0.00000000E+00  0.00000000E+00  0.00000000E+00
  0.00000000E+00  0.00000000E+00  0.00000000E+00
  0.00000000E+00  0.00000000E+00  0.00000000E+00
  0.00000000E+00  0.00000000E+00  0.00000000E+00
  0.00000000E+00  0.00000000E+00  0.00000000E+00
  0.00000000E+00  0.00000000E+00  0.00000000E+00
  0.00000000E+00  0.00000000E+00  0.00000000E+00
  0.00000000E+00  0.00000000E+00  0.00000000E+00
  0.00000000E+00  0.00000000E+00  0.00000000E+00
  0.00000000E+00  0.00000000E+00  0.00000000E+00
  0.00000000E+00  0.00000000E+00  0.00000000E+00
  0.00000000E+00  0.00000000E+00  0.00000000E+00
  0.00000000E+00  0.00000000E+00  0.00000000E+00
  0.00000000E+00  0.00000000E+00  0.00000000E+00
  0.00000000E+00  0.00000000E+00  0.00000000E+00
  0.00000000E+00  0.00000000E+00  0.00000000E+00
  0.00000000E+00  0.00000000E+00  0.00000000E+00
  0.00000000E+00  0.00000000E+00  0.00000000E+00
  0.00000000E+00  0.00000000E+00  0.00000000E+00
  0.00000000E+00  0.00000000E+00  0.00000000E+00
  0.00000000E+00  0.00000000E+00  0.00000000E+00
  0.00000000E+00  0.00000000E+00  0.00000000E+00
  0.00000000E+00  0.00000000E+00  0.00000000E+00
  0.00000000E+00  0.00000000E+00  0.00000000E+00
  0.00000000E+00  0.00000000E+00  0.00000000E+00
  0.00000000E+00  0.00000000E+00  0.00000000E+00
  0.00000000E+00  0.00000000E+00  0.00000000E+00
  0.00000000E+00  0.00000000E+00  0.00000000E+00
  0.00000000E+00  0.00000000E+00  0.00000000E+00
  0.00000000E+00  0.00000000E+00  0.00000000E+00
  0.00000000E+00  0.00000000E+00  0.00000000E+00
  0.00000000E+00  0.00000000E+00  0.00000000E+00
  0.00000000E+00  0.00000000E+00  0.00000000E+00
  0.00000000E+00  0.00000000E+00  0.00000000E+00
  0.00000000E+00  0.00000000E+00  0.00000000E+00
  0.00000000E+00  0.00000000E+00  0.00000000E+00
  0.00000000E+00  0.00000000E+00  0.00000000E+00
