Na4 Ti2 Si4 O14                         
   1.00000000000000     
     7.4269340777485997   -0.0425481717132360    2.0089863576757763
     2.3890450179227294    6.3569366193612185   -0.0734855253901477
     0.1161830586236165   -0.0163245937409629    8.1917474427349575
   Na   Ti   Si   O 
     4     2     4    14
Direct
  0.3482514351411021  0.0880803784210504  0.1320860298425545
  0.1420298255774164  0.1537456006287484  0.7148983751652209
  0.5133256306549256  0.5408621991707333  0.5046247031688134
  0.8585041891007943  0.9723878640099648  0.0944613745978857
  0.5042656762775306  0.5508318286176607  0.1027106315994957
  0.8094085316676211  0.6757422325581944  0.7784849882326558
  0.9498338879372694  0.4133373716152260  0.1076258862362480
  0.6813318024614962  0.2201677700600135  0.7825172964188768
  0.6718444586807495  0.9652356918499883  0.4977859689598854
  0.0676156525880165  0.6473986404091753  0.3898826740124549
  0.6393735430486283  0.7772481463417366  0.6054390165877734
  0.7145604119163681  0.4389380463950363  0.2071100435842185
  0.0434697398169123  0.4608653265246542  0.2706741627689340
  0.2890843399198903  0.6636906202851942  0.2969086861261702
  0.0582770194688139  0.5915431415488018  0.5893159508494286
  0.5210724173366450  0.0299854678034630  0.3203179816437656
  0.9037169736936466  0.8932275278545097  0.3775317634693665
  0.0793118493433514  0.1618202112839084  0.0153145831223902
  0.8125164462782342  0.9724428793195743  0.8099272083142842
  0.9449413020770027  0.5972488320589845  0.9668010380485272
  0.5860763151118373  0.2037586095368026  0.6115800700706170
  0.5479950829622504  0.7530171852231369  0.9665877457917327
  0.8096171734361541  0.3767573744787771  0.7405165019689642
  0.4982832428598060  0.3252220619541371  0.9649325972185088
 
  0.00000000E+00  0.00000000E+00  0.00000000E+00
  0.00000000E+00  0.00000000E+00  0.00000000E+00
  0.00000000E+00  0.00000000E+00  0.00000000E+00
  0.00000000E+00  0.00000000E+00  0.00000000E+00
  0.00000000E+00  0.00000000E+00  0.00000000E+00
  0.00000000E+00  0.00000000E+00  0.00000000E+00
  0.00000000E+00  0.00000000E+00  0.00000000E+00
  0.00000000E+00  0.00000000E+00  0.00000000E+00
  0.00000000E+00  0.00000000E+00  0.00000000E+00
  0.00000000E+00  0.00000000E+00  0.00000000E+00
  0.00000000E+00  0.00000000E+00  0.00000000E+00
  0.00000000E+00  0.00000000E+00  0.00000000E+00
  0.00000000E+00  0.00000000E+00  0.00000000E+00
  0.00000000E+00  0.00000000E+00  0.00000000E+00
  0.00000000E+00  0.00000000E+00  0.00000000E+00
  0.00000000E+00  0.00000000E+00  0.00000000E+00
  0.00000000E+00  0.00000000E+00  0.00000000E+00
  0.00000000E+00  0.00000000E+00  0.00000000E+00
  0.00000000E+00  0.00000000E+00  0.00000000E+00
  0.00000000E+00  0.00000000E+00  0.00000000E+00
  0.00000000E+00  0.00000000E+00  0.00000000E+00
  0.00000000E+00  0.00000000E+00  0.00000000E+00
  0.00000000E+00  0.00000000E+00  0.00000000E+00
  0.00000000E+00  0.00000000E+00  0.00000000E+00
