Na1 La1 Mo2 O7                          
   1.00000000000000     
     5.5979816120313872   -0.1558364141286316   -0.6989181811559878
     1.0646229561817153    5.7161743813744108    1.7788246469037126
     0.1074699911326468    0.4391911983603400    6.0650091108821478
   Na   La   Mo   O 
     1     1     2     7
Direct
  0.4016609527423945  0.4844275938329504  0.2965040933183859
  0.4010950839760336  0.1082759807553506  0.9187555123267459
  0.0021649788895366  0.0329461077498813  0.3642127573452495
  0.8001573857975938  0.5550926094587085  0.8446710895334587
  0.6247655243912874  0.7218256666650936  0.9827320379586723
  0.1860598205532159  0.8783065678446128  0.2159241238536721
  0.9042378821032168  0.7901935904965586  0.5993000683765950
  0.1018612804879234  0.3867103112824613  0.0048624660631721
  0.1794571638019221  0.1703409827058303  0.5321591908829947
  0.6211045159193946  0.4036423370181594  0.6928087994874312
  0.6989444686208838  0.1953754024333183  0.1992766373533705
 
  0.00000000E+00  0.00000000E+00  0.00000000E+00
  0.00000000E+00  0.00000000E+00  0.00000000E+00
  0.00000000E+00  0.00000000E+00  0.00000000E+00
  0.00000000E+00  0.00000000E+00  0.00000000E+00
  0.00000000E+00  0.00000000E+00  0.00000000E+00
  0.00000000E+00  0.00000000E+00  0.00000000E+00
  0.00000000E+00  0.00000000E+00  0.00000000E+00
  0.00000000E+00  0.00000000E+00  0.00000000E+00
  0.00000000E+00  0.00000000E+00  0.00000000E+00
  0.00000000E+00  0.00000000E+00  0.00000000E+00
  0.00000000E+00  0.00000000E+00  0.00000000E+00
