Rb2 Na1 Fe1 Cl6
1.0
   6.2789797782897949    0.0000000000000000    3.6161627769470219
   2.0953344876146667    5.9239276545844213    3.6107351779937744
   0.0000000000000000    0.0000000000000000    7.2406663894653320
Rb Na Fe Cl
2 1 1 6
direct
   0.3710289895534515    0.0872632488608360    0.6701473593711853 Rb
   0.8710840940475463    0.5876795649528503    0.1695640087127687 Rb
   0.6215959787368774    0.3371528089046478    0.9199261665344238 Na
   0.1211550012230873    0.8377834558486940    0.4203405380249023 Fe
   0.8881739974021911    0.0698912218213081    0.1868138313293457 Cl
   0.8886792063713073    0.0706600397825241    0.6534155607223511 Cl
   0.3543646037578583    0.6045156121253967    0.6533159017562866 Cl
   0.3546176850795746    0.0707949548959732    0.1869331002235413 Cl
   0.3540334701538086    0.6045307517051697    0.1870800107717514 Cl
   0.8881221413612365    0.6038504242897034    0.6530587077140808 Cl
