Na3 Al1 Se3
1.0
   3.9962124824523926    0.0000000000000000    0.0003394882660356
  -1.9649032071834838    6.1920127889329484   -2.7696642875671378
   0.0000000000000000    0.0000000000000000    7.3341450691223145
Na Al Se
3 1 3
direct
   0.2610742449760437    0.6800778508186340    0.6172413229942323 Na
   0.1276039183139801    0.4051308631896973    0.0474841669201851 Na
   0.4605124592781067    0.0907295942306518    0.4555670619010926 Na
   0.8301773071289062    0.8208461403846741    0.0508715398609638 Al
   0.8002518415451050    0.7584556937217711    0.3511171042919159 Se
   0.4350507855415344    0.0367886722087860    0.0387631505727768 Se
   0.6677076220512390    0.4834209382534027    0.7783541679382325 Se
