Na8 Cu2 O7
1.0
   5.6905574798583984    0.0000000000000000    1.4652261734008796
   2.2201251527827002    5.2180183957933259    0.5287228822708128
   0.0000000000000000    0.0000000000000000    8.0539808273315430
Na Cu O
8 2 7
direct
   0.6356133818626404    0.9634274244308472    0.7251430749893188 Na
   0.2250865846872329    0.8454824090003967    0.5794605016708374 Na
   0.9895643591880797    0.8660070300102233    0.9712960124015808 Na
   0.9077191352844238    0.4089341759681701    0.1803815364837646 Na
   0.4505298435688019    0.8623067140579223    0.1877225041389465 Na
   0.3131909966468810    0.3137683272361755    0.3987931311130524 Na
   0.5189980864524841    0.3981775641441345    0.9732329845428467 Na
   0.7348498106002808    0.3964010179042816    0.5615659356117249 Na
   0.8863846063613892    0.9081125259399414    0.3218249976634979 Cu
   0.0316870957612991    0.3945165574550629    0.7981285452842712 Cu
   0.6436774134635925    0.7981018424034119    0.4620504975318909 O
   0.7547414302825928    0.6472870111465454    0.9337728023529053 O
   0.9183425903320312    0.1575960516929626    0.7674581408500671 O
   0.1678155511617661    0.6406845450401305    0.1981533467769623 O
   0.0575751550495625    0.0977893769741058    0.3636997044086456 O
   0.6774057149887085    0.1377885639667511    0.1936154067516327 O
   0.3301039934158325    0.4244895875453949    0.7023365497589111 O
