Li8 Mn4 O8
1.0
   5.5351285934448242    0.0000000000000000   -0.0386344268918038
   0.8887739184574450    5.5504745386405956   -0.0083952276036141
   0.0000000000000000    0.0000000000000000    7.2259502410888672
Li Mn O
8 4 8
direct
   0.9445950984954834    0.1843906044960022    0.9281303882598877 Li
   0.2076187878847122    0.9570804238319397    0.6718074679374695 Li
   0.6999387145042419    0.9389477968215942    0.4484238028526306 Li
   0.5134540796279907    0.7563998699188231    0.8793386220932007 Li
   0.2345527857542038    0.4833132624626160    0.9696449041366577 Li
   0.2502261400222778    0.9358394145965576    0.1474777460098267 Li
   0.3112579882144928    0.6047851443290710    0.3991166353225708 Li
   0.5363873243331909    0.2486815452575683    0.1651975214481354 Li
   0.0117816654965282    0.2355936765670776    0.3856423795223236 Mn
   0.9576299786567688    0.5832753777503967    0.6771992444992065 Mn
   0.5110924243927002    0.2642745971679688    0.6818569898605347 Mn
   0.7920182347297668    0.6990061998367308    0.1598701477050781 Mn
   0.4286991655826569    0.6135281324386597    0.1489925682544708 O
   0.8735597729682922    0.0563313625752926    0.1733679622411728 O
   0.8764103055000305    0.5455830693244933    0.9248499274253845 O
   0.3322785198688507    0.6149625778198242    0.6896299719810486 O
   0.9325427412986755    0.6115432977676390    0.4080567061901093 O
   0.8739743828773499    0.1314067989587784    0.6458672881126404 O
   0.3765158653259277    0.1127590388059616    0.4254692792892456 O
   0.3423151373863220    0.1155317798256874    0.9154148697853088 O
