Generated by VASPKIT code
 1.000000
    5.3955123725925755    0.0008548965991421    0.7477813826981680
    0.3989271411616087    6.0491730096553118    0.3423569248030041
    0.0163824992515297   -0.0666979426922284    7.7738470252134864
   Ti   Zn   Si   B    O 
     1     2     2     1    11
Direct
    0.2919125105228446    0.8857579819446744    0.5885092352388176    Ti001
    0.6675974170627654    0.9084552321079858    0.2595527586200709    Zn001
    0.1028684558013897    0.1657680433850802    0.2146105886991720    Zn002
    0.2298405960925861    0.7009301923253872    0.0362183286092486    Si001
    0.7665297495675844    0.1848892259685578    0.5944403498172425    Si002
    0.8630850915736669    0.6069340716461146    0.5383563123555678     B001
    0.2762632088603872    0.7177122838004415    0.8199553469781525     O001
    0.3293119377719724    0.0520236002077824    0.3799969307032536     O002
    0.9904885076103920    0.0367438290448527    0.6758956954572541     O003
    0.1076507729390041    0.6518247514214149    0.4993788511433159     O004
    0.7896455140502767    0.2006922771354529    0.3823788194052355     O005
    0.5058748502256991    0.0929266859266028    0.6883823936177954     O006
    0.4900437956757885    0.7391557402821556    0.1091764893650845     O007
    0.8045494744788163    0.4345193461590027    0.6649172013153991     O008
    0.0056122165652471    0.8973081237881995    0.1015510290574027     O009
    0.1520305771118008    0.4461801794108882    0.0880801916811439     O010
    0.6602580101148456    0.7171888843661153    0.4785779437489444     O011
