Generated by VASPKIT code
 1.000000
    5.7433246188947535   -0.1592285385832684   -2.3690005619949068
    0.2798688711372240    5.5090752058698946   -1.0099172244915642
   -0.0208098912553238    0.2797842174690305    5.3865858628680243
   Au   O 
     3     6
Direct
    0.0607424571090421    0.6983676869446247    0.8342816848099716    Au001
    0.4087027818017754    0.7083834751942756    0.5562851692508310    Au002
    0.7341655814746072    0.2033454585777384    0.6953200199210980    Au003
    0.1882071178847839    0.9361403366705670    0.6797947599667077     O001
    0.5119046234605494    0.9719139627462563    0.4051323036692547     O002
    0.8601805591228591    0.9512696361280427    0.9616510655444616     O003
    0.9564858509095506    0.4349328868813600    0.9850522931907745     O004
    0.2809111948252556    0.4705063019107694    0.7107987915505954     O005
    0.6087059036785551    0.4549620357086243    0.4285557019552719     O006
