Na8 Mn2 S7
1.0
   6.9624476432800293    0.0000000000000000    0.6620625853538498
   2.3317195647998674    6.5796574261078300   -1.0577311515808105
   0.0000000000000000    0.0000000000000000    9.0536155700683594
Na Mn S
8 2 7
direct
   0.8242585062980652    0.3679697811603546    0.2469399273395538 Na
   0.3190494775772095    0.2841623723506927    0.0312970913946629 Na
   0.3737569749355316    0.7200573086738586    0.8370897173881531 Na
   0.8690693974494934    0.2173148393630981    0.8155695796012878 Na
   0.8705278635025023    0.7288208603858949    0.9859179854393004 Na
   0.7299004197120667    0.9652237892150879    0.3220590651035309 Na
   0.3211327493190765    0.5433815121650696    0.4841789007186889 Na
   0.8347789049148560    0.6287600398063660    0.5884954333305359 Na
   0.2636041343212128    0.7961136698722839    0.2180702239274979 Mn
   0.4440847933292389    0.1615464389324188    0.6483112573623657 Mn
   0.6200976967811584    0.9635455012321472    0.8133905529975891 S
   0.6843496561050415    0.3088066279888153    0.5397086739540100 S
   0.0479002557694912    0.6101770401000977    0.2877016067504883 S
   0.1448806524276733    0.4433456361293793    0.7624739408493042 S
   0.5690655112266541    0.5452352166175842    0.0656895786523819 S
   0.3713061809539795    0.9180856943130493    0.4576767981052398 S
   0.0684042125940323    0.0207765754312277    0.0693871825933456 S
