Na2 La1 Te2 Br1
1.0
   4.4662590026855469    0.0000000000000000   -0.0037351192440837
   2.2237347493405935    3.8897236523099230    0.0029112822376185
   0.0000000000000000    0.0000000000000000   11.0305185317993164
Na La Te Br
2 1 2 1
direct
   0.7363197803497314    0.8531686663627625    0.5912435054779053 Na
   0.0709360241889954    0.1866702884435654    0.9040498137474061 Na
   0.4037476778030396    0.5201906561851501    0.2474691867828369 La
   0.7368835210800171    0.8523952960968018    0.0832144021987915 Te
   0.0712873488664627    0.1870707422494888    0.4130797982215882 Te
   0.4031669199466705    0.5205648541450500    0.7461591958999635 Br
