Na5 Cu1 Cl6
1.0
   3.9126839637756348    0.0000000000000000   -0.0986473187804223
  -0.0267301701284157    5.5483307683190919   -0.0167441461235289
   0.0000000000000000    0.0000000000000000   11.7870311737060547
Na Cu Cl
5 1 6
direct
   0.6561659574508668    0.7222672700881958    0.2320277541875839 Na
   0.6610352993011476    0.7211022973060608    0.5701975226402283 Na
   0.1446530371904373    0.2230499386787415    0.0600347593426704 Na
   0.1658389419317246    0.2210762500762939    0.4031055271625519 Na
   0.6490839123725892    0.7233765125274658    0.8933178186416626 Na
   0.1557800322771072    0.2216660380363464    0.7324445843696594 Cu
   0.1546705812215805    0.7216424942016600    0.7319191694259644 Cl
   0.6975678801536561    0.2218149602413177    0.5834835171699524 Cl
   0.6122623682022095    0.2231717854738235    0.8799698352813721 Cl
   0.1470107585191727    0.7225709557533263    0.0611280724406242 Cl
   0.1635245978832245    0.7211926579475402    0.4026802182197571 Cl
   0.6543957591056825    0.2222703248262405    0.2316936701536179 Cl
