Generated by VASPKIT code
 1.000000
    4.1446143614908726    0.0163948814371155    0.5465178520205419
   -0.0326834537889753    7.1667775277279588    0.0758876419775530
    0.0411815757163811    0.3511865559947594   15.7693287729716420
   Cd   S 
     5     8
Direct
    0.0426194612391712    0.5546838874679476    0.6882259783797822    Cd001
    0.5774914299964509    0.0604057675324363    0.6141162160775587    Cd002
    0.1760265581005415    0.1545871986681431    0.4136550100303896    Cd003
    0.3260235274179459    0.1369570685499448    0.1074249796555986    Cd004
    0.4111873149885493    0.4059762128698579    0.9457519090268489    Cd005
    0.5751842814587212    0.4219179585963533    0.6236109113491916     S001
    0.7877384170664389    0.0017350393389896    0.1840451977630382     S002
    0.4094223954772390    0.0414287282450798    0.9464810489209629     S003
    0.6542954864189428    0.9763757431359077    0.4568536810180195     S004
    0.9543247451317978    0.5303316225735218    0.8604284151707593     S005
    0.3319269097203977    0.5019869492417376    0.0999648522983518     S006
    0.2057439300383693    0.4697075903474618    0.3510553833179096     S007
    0.0377846679241559    0.9225723982823258    0.6941778471532041     S008
