Generated by VASPKIT code
 1.000000
    8.6027524251254910    0.0441212188206176   -0.1326940211053170
   -1.3400059765167174    7.4957319623336023   -3.8812640747311171
    0.0329318679495277    0.0237366661543532   12.0006056410245368
   Ga   As
     2     9
Direct
    0.9340102617824381    0.0358938695443436    0.7373041551274201    Ga001
    0.8309614661162200    0.3933475011010157    0.0316078066066239    Ga002
    0.4712240406223999    0.3694830890222647    0.6002073704580072    As001
    0.8129715902754547    0.3748560127172825    0.2393418297176294    As002
    0.3556111470374623    0.7186463598483428    0.3716718445745877    As003
    0.0205048678728972    0.7472139384269767    0.7144099087349173    As004
    0.9230322522699826    0.0680897034585972    0.5291401736420996    As005
    0.6647636019500341    0.0916325766113858    0.8542484282288760    As006
    0.2695580459111552    0.0489198461211663    0.1470643128549393    As007
    0.7241281747265412    0.6597718853028196    0.0363478423259998    As008
    0.1010900802492890    0.3377493067437333    0.9199694192480057    As009
