Na4 Cd4 O6
1.0
   5.2772884368896493    0.0000000000000000   -2.5548591613769522
   0.2558818236074604    6.2066201934919958    0.0359928756952283
   0.0000000000000000    0.0000000000000000    6.5447521209716797
Na Cd O
4 4 6
direct
   0.1275604069232941    0.9293424487113953    0.9211424589157104 Na
   0.8800626397132874    0.9022589325904845    0.3133043348789215 Na
   0.4452698230743408    0.2861210107803345    0.1050229296088219 Na
   0.0123060327023268    0.5399338603019713    0.6588436365127563 Na
   0.4410540163516998    0.7059866189956664    0.3437147438526154 Cd
   0.0481246188282967    0.3534640669822693    0.2639219462871552 Cd
   0.6602906584739685    0.6674339771270751    0.8895602226257324 Cd
   0.5213621854782104    0.1228854134678841    0.6493654251098633 Cd
   0.1140858605504036    0.5599534511566162    0.0314333252608776 O
   0.2319598048925400    0.0409142039716244    0.2965072989463806 O
   0.7354282736778258    0.5340253114700317    0.2576812803745270 O
   0.5345567464828491    0.9871619343757628    0.9583675265312195 O
   0.3817889690399170    0.4710251092910766    0.6023110151290894 O
   0.7694084644317627    0.8651402592658997    0.6184659600257874 O
