K1 Na22 Zn1 Sn4 O16
1.0
   6.8551964759826660    0.0000000000000000    0.4990824759006484
  -1.6700234118821435    8.8836948745267819    1.2191693782806405
   0.0000000000000000    0.0000000000000000   12.8935880661010742
K Na Zn Sn O
1 22 1 4 16
direct
   0.2168573290109634    0.5191330313682556    0.2645163536071777 K
   0.8818895816802979    0.6429950594902039    0.8541505932807922 Na
   0.7581958770751953    0.0023506879806519    0.9702007770538330 Na
   0.3783506751060486    0.1555631756782532    0.3502868115901947 Na
   0.6485305428504944    0.7587124109268188    0.1736228168010712 Na
   0.2118095755577087    0.9894797205924988    0.9742711782455444 Na
   0.5198881030082703    0.2025396078824997    0.5882894992828369 Na
   0.2547769248485565    0.4049825966358185    0.5219593048095703 Na
   0.2493868917226791    0.5851434469223022    0.7533417344093323 Na
   0.2102249562740326    0.9035761952400209    0.7548632621765137 Na
   0.5240166187286377    0.7803683280944824    0.6042978167533875 Na
   0.6798755526542664    0.9350277781486512    0.3743427693843842 Na
   0.7423732876777649    0.9513220191001893    0.7289987802505493 Na
   0.7859711050987244    0.3315434157848358    0.9803593754768372 Na
   0.0823735669255257    0.8482282757759095    0.2533174455165863 Na
   0.9650385379791260    0.6875896453857422    0.0683420971035957 Na
   0.0135705592110753    0.9653987288475037    0.5268852710723877 Na
   0.8356624245643616    0.2319296002388000    0.4189845919609070 Na
   0.9296671152114868    0.5780218839645386    0.6218687891960144 Na
   0.2410010397434235    0.7332735657691957    0.4402485787868500 Na
   0.3519049882888794    0.3216763436794282    0.0279906671494246 Na
   0.6706495285034180    0.4077660441398621    0.2004278302192688 Na
   0.5822806954383850    0.4102169573307037    0.7760912179946899 Na
   0.4984205067157745    0.0304612331092358    0.1644602268934250 Zn
   0.4633737504482269    0.6808577775955200    0.9396316409111023 Sn
   0.9833786487579346    0.1463743895292282    0.1900109499692917 Sn
   0.0677068531513214    0.2545109987258911    0.7727067470550537 Sn
   0.7375860214233398    0.5625803470611572    0.4075483977794647 Sn
   0.5875148773193359    0.6884048581123352    0.7830868959426880 O
   0.4074010848999023    0.8386904001235962    0.2691091597080231 O
   0.9860019683837891    0.4841076433658600    0.4588581919670105 O
   0.8555501699447632    0.6122234463691711    0.2510609328746796 O
   0.6326881051063538    0.5396844744682312    0.0211388096213341 O
   0.5292521715164185    0.3702897429466248    0.4149744212627411 O
   0.6967498064041138    0.0182157047092915    0.5513058900833130 O
   0.5068206787109375    0.1203089132905007    0.0201282482594252 O
   0.1895297020673752    0.7233513593673706    0.9166042804718018 O
   0.1781614720821381    0.7733206748962402    0.6142773032188417 O
   0.6887549161911011    0.1571750044822693    0.2439302206039429 O
   0.3248181045055389    0.3355446159839630    0.6912304162979126 O
   0.9092942476272583    0.4127450883388519    0.7901763916015625 O
   0.0417412072420120    0.0549254268407822    0.3415849506855011 O
   0.9908120632171631    0.0424673110246658    0.8268953561782837 O
   0.9405102133750916    0.9527257084846497    0.1133323311805725 O
