Na5 Sn2 Bi1 P6 O21
1.0
   6.8446779251098633    0.0000000000000000    0.3222477436065672
   0.1206503795751209    8.4056864863422405    0.8738240599632260
   0.0000000000000000    0.0000000000000000    9.1647415161132812
Na Sn Bi P O
5 2 1 6 21
direct
   0.6525794267654419    0.5718815326690674    0.5186822414398193 Na
   0.8430436253547668    0.2923696935176849    0.3433778882026672 Na
   0.1018510088324547    0.3633818030357360    0.9956480264663696 Na
   0.4137153625488281    0.9907312393188477    0.6670213341712952 Na
   0.2595513463020325    0.9174250364303589    0.0125401858240366 Na
   0.1786863654851913    0.4042413234710693    0.6270317435264587 Sn
   0.9247354269027710    0.9137297868728638    0.4990217685699463 Sn
   0.6073367595672607    0.6079456210136412    0.1091770455241203 Bi
   0.9838151931762695    0.7052093744277953    0.7953008413314819 P
   0.3693967163562775    0.2746496498584747    0.3388154208660126 P
   0.5019767880439758    0.3019503355026245    0.8561588525772095 P
   0.1327166557312012    0.5554940700531006    0.2877923548221588 P
   0.8614086508750916    0.2196844220161438    0.7079129219055176 P
   0.6080716252326965    0.9797226786613464    0.2701056003570557 P
   0.5522527098655701    0.8689593672752379    0.1542200595140457 O
   0.2527001798152924    0.6505600810050964    0.1664898395538330 O
   0.1429487168788910    0.8372901082038879    0.7863683104515076 O
   0.1761225014925003    0.3615955114364623    0.2594135105609894 O
   0.0850955992937088    0.5377162098884581    0.7896342873573303 O
   0.4225569367408752    0.1334313899278641    0.8742609024047852 O
   0.2067473232746124    0.5732088685035706    0.4454090297222137 O
   0.7398742437362671    0.2902851402759552    0.8402438163757324 O
   0.9086619019508362    0.5730668306350708    0.2831727266311646 O
   0.8837123513221741    0.3538518249988556    0.5776008963584900 O
   0.4571230411529541    0.4038252234458923    0.9840794205665588 O
   0.8496382236480713    0.7237183451652527    0.6558011770248413 O
   0.4541154205799103    0.4004631936550140    0.7038571238517761 O
   0.2970052957534790    0.2258342355489731    0.4979479908943176 O
   0.4153989553451538    0.1152604818344116    0.2647501826286316 O
   0.7989403009414673    0.0724640414118767    0.2335866540670395 O
   0.7691141366958618    0.0719871371984482    0.6570424437522888 O
   0.6101546287536621    0.8938549160957336    0.4311966896057129 O
   0.8531677722930908    0.6988927125930786    0.9396461844444275 O
   0.5375420451164246    0.3925997912883759    0.3234027624130249 O
   0.0654201805591583    0.2073779553174973    0.7694525718688965 O
