Na3 Fe1 S3 O11
1.0
   5.9613556861877441    0.0000000000000000    0.7390405535697930
  -0.5168426528457171    6.3842605470756411   -0.8523811101913449
   0.0000000000000000    0.0000000000000000    6.6026105880737305
Na Fe S O
3 1 3 11
direct
   0.6200509667396545    0.2534016966819763    0.1599057167768478 Na
   0.1440358459949493    0.9843506217002868    0.3670558035373688 Na
   0.2132278680801392    0.8424579501152039    0.8604969978332520 Na
   0.7077695727348328    0.6290619373321534    0.5539900660514832 Fe
   0.1925565749406815    0.4771573245525360    0.5040766596794128 S
   0.6956645846366882    0.7728170752525330    0.0802927017211914 S
   0.6262068748474121    0.1367098689079285    0.6411996483802795 S
   0.0420395173132420    0.6460496783256531    0.4958739280700684 O
   0.7632539272308350    0.9495313167572021    0.5521233677864075 O
   0.7171964049339294    0.6574681997299194    0.8682841658592224 O
   0.3794534206390381    0.0751358717679977    0.6361026763916016 O
   0.3805056810379028    0.5998917818069458    0.6022346615791321 O
   0.6843430399894714    0.6140285134315491    0.2327028214931488 O
   0.6915411949157715    0.2151064276695252    0.8360747098922729 O
   0.4799205660820007    0.8806421160697937    0.1188063248991966 O
   0.8966584801673888    0.9167574644088745    0.1024979948997498 O
   0.2400320619344711    0.3407156765460968    0.3305664062500000 O
   0.6960642933845520    0.2995984554290771    0.4978135526180267 O
