Na3 Cu2 Ag1 As2
1.0
   5.0513978004455558    0.0000000000000000   -2.0103199481964116
  -2.9745806471055403    4.5712881345507688    0.1108102127909665
   0.0000000000000000    0.0000000000000000    7.3864965438842773
Na Cu Ag As
3 2 1 2
direct
   0.8832559585571289    0.7017037272453308    0.5200085639953613 Na
   0.2382563650608063    0.8831881284713745    0.0563348233699799 Na
   0.0611144714057446    0.2927716374397278    0.2881436944007874 Na
   0.5592141747474670    0.7920073866844177    0.7870938181877135 Cu
   0.0594878979027271    0.2914818227291107    0.7880699038505554 Cu
   0.5593705177307129    0.2927199006080627    0.7877746820449829 Ag
   0.5718274712562561    0.5577244162559509    0.0649192482233047 As
   0.5517577528953552    0.0300306659191847    0.5117483735084535 As
