Na4 Nd1 Ga1 Ge2 S9
1.0
   6.3727617263793945    0.0000000000000000   -2.1055817604064937
  -4.1213204170280742    6.7949885453109298    0.4969665110111239
   0.0000000000000000    0.0000000000000000    9.5262660980224609
Na Nd Ga Ge S
4 1 1 2 9
direct
   0.1354677081108093    0.9258870482444762    0.8545557260513306 Na
   0.4438843727111817    0.2029128223657608    0.3087438344955444 Na
   0.8162686824798584    0.1058548763394356    0.0845954865217209 Na
   0.4350935518741608    0.8059480786323547    0.5995238423347473 Na
   0.0606113485991955    0.2593198716640472    0.5423342585563660 Nd
   0.3105346560478210    0.6954934000968933    0.1978713572025299 Ga
   0.6339042186737061    0.5687422156333923    0.9921492934226990 Ge
   0.6969234943389893    0.3308577239513397    0.6857987642288208 Ge
   0.2105707526206970    0.4188203513622283    0.3013496696949005 S
   0.8983018398284913    0.5053480863571167    0.5349489450454712 S
   0.3911332488059998    0.6958708167076111    0.9736624360084534 S
   0.6449030637741089    0.9499118924140929    0.3610260784626007 S
   0.0158500503748655    0.7974669933319091    0.1352138966321945 S
   0.6308256387710571    0.5752617716789246    0.7482772469520569 S
   0.3047053217887878    0.0769859328866005    0.5911038517951965 S
   0.5168568491935730    0.2736301422119141    0.0382440909743309 S
   0.8790978789329530    0.1650448590517044    0.7896203994750977 S
