Li4 Mn1 Fe2 P2 C2 O14
1.0
   5.0203952789306632    0.0000000000000000   -0.0403666161000727
  -0.0315521865875777    6.4033679854528005   -0.0211779829114678
   0.0000000000000000    0.0000000000000000    8.5652608871459961
Li Mn Fe P C O
4 1 2 2 2 14
direct
   0.0494984574615955    0.3831036686897278    0.0914842039346695 Li
   0.5436022281646729    0.6343812346458435    0.9209303259849548 Li
   0.5791646242141724    0.3799592852592468    0.5826437473297119 Li
   0.5441219806671143    0.1333818733692169    0.9246442914009094 Li
   0.0116744134575129    0.8831511735916139    0.7240169048309326 Mn
   0.0236912537366152    0.1268165111541748    0.3944990634918213 Fe
   0.0238701701164246    0.6382825970649719    0.3946610689163208 Fe
   0.0413041748106480    0.8831833004951477    0.0597668066620827 P
   0.0476587601006031    0.3829430043697358    0.7426481246948242 P
   0.5165897011756897    0.3817845284938813    0.2767278254032135 C
   0.5236803293228149    0.8825861215591431    0.5290927886962891 C
   0.7917040586471558    0.8830206990242006    0.9579052925109863 O
   0.0523636229336262    0.6842745542526245    0.1618008613586426 O
   0.3466183841228485    0.3831352293491364    0.7795657515525818 O
   0.9718793034553528    0.5716412663459778    0.6386486291885376 O
   0.4800458252429962    0.3811795115470886    0.1278259158134460 O
   0.2790421843528748    0.8826391100883484    0.4706824123859406 O
   0.3222126066684723    0.3820748627185822    0.3769534230232239 O
   0.0510443001985550    0.0813495293259621    0.1627506315708160 O
   0.7317035794258118    0.8820422887802124    0.4350924789905548 O
   0.9707210063934326    0.1941442936658859    0.6384494304656982 O
   0.7550267577171326    0.3823518455028534    0.3417083621025085 O
   0.8784044384956360    0.3834487497806549    0.8903663754463196 O
   0.2666099071502686    0.8839686512947083    0.9405274987220764 O
   0.5538116693496704    0.8813722133636475    0.6759865880012512 O
