K6 Na3 Fe1 Cl11
1.0
   7.2107558250427237    0.0000000000000000    0.8294302821159359
   1.8125944292050336    7.0026282730246487    1.3717335462570199
   0.0000000000000000    0.0000000000000000   11.5656347274780273
K Na Fe Cl
6 3 1 11
direct
   0.7657346129417418    0.7175137996673585    0.5002383589744568 K
   0.7454408407211303    0.2767936289310455    0.3319675028324127 K
   0.2326189130544662    0.6581410765647888    0.7154571413993835 K
   0.7259697914123534    0.1662997454404831    0.7137937545776367 K
   0.2075580060482025    0.1141362786293030    0.9035576581954956 K
   0.1695430129766464    0.5729425549507142    0.1077751889824867 K
   0.2008939832448959    0.9977059364318849    0.2720540761947632 Na
   0.6900452375411987    0.6144616603851319    0.9314050078392029 Na
   0.6978269815444946    0.0575330853462219    0.0618277527391911 Na
   0.2514057159423828    0.2058791518211365    0.5351210236549377 Fe
   0.9342492818832395    0.8493089675903321    0.8995131254196167 Cl
   0.0837809890508652    0.4138632118701935    0.3760101199150085 Cl
   0.4411250650882721    0.8272969722747803    0.0932563617825508 Cl
   0.4630563259124755    0.4301008582115173    0.5279301404953003 Cl
   0.4498828947544098    0.9501225948333740    0.6881521940231323 Cl
   0.0183799527585506    0.3833716511726379    0.6838759183883668 Cl
   0.0362746082246303    0.9898777604103089    0.5310810804367065 Cl
   0.9087702631950377    0.8729336857795715    0.2443047761917114 Cl
   0.4606375396251678    0.0512038245797157    0.3831532001495361 Cl
   0.9221325516700744    0.3227216899394989    0.0773369148373604 Cl
   0.4683709442615508    0.3715513050556183    0.9182251095771790 Cl
