Na1 Cu1 S2 O8
1.0
   5.1914463043212882    0.0000000000000000    1.0958733558654790
   1.8252753209504535    5.3096485357100818    0.2330598831176763
   0.0000000000000000    0.0000000000000000    6.2996921539306641
Na Cu S O
1 1 2 8
direct
   0.7097834944725037    0.2319092899560928    0.9346306324005127 Na
   0.4498852491378784    0.6749468445777892    0.3314781486988068 Cu
   0.3519506156444551    0.8235169053077697    0.8435864448547363 S
   0.0529611706733704    0.2686913609504699    0.3885698914527893 S
   0.5050326585769653    0.6672379970550537    0.0142453806474805 O
   0.4410966634750366    0.0441472716629505    0.7987982630729675 O
   0.2939364910125732    0.3331883847713470    0.2788201570510864 O
   0.9608675241470338    0.3516705930233001    0.6114168167114258 O
   0.8219729065895081    0.3893345892429352    0.2633906900882721 O
   0.0610208064317703    0.8804655671119690    0.9209648370742798 O
   0.1111836135387421    0.9818922281265259    0.3653660416603088 O
   0.4335005283355713    0.6466492414474486    0.6389518380165100 O
