Generated by VASPKIT code
 1.000000
    5.0833168959202117    0.0013917308509024    2.9303090036411485
    1.6919143805948746    4.7939885999662213    2.9295911866365807
    0.0002940560453976    0.0012358424467743    5.8662794797342146
   Sr   Hf   Bi   O 
     1     1     1     6
Direct
    0.2468993488018780    0.1049474853893703    0.5478477494021611    Sr001
    0.4973136643961542    0.3552882937922250    0.7977139285732473    Hf001
    0.9972012467352969    0.8551825448748404    0.2976903858178577    Bi001
    0.2495719549202219    0.1073943870971927    0.0452659534100081     O001
    0.7453248401904964    0.6029043581668760    0.5500542557965801     O002
    0.2496344327826653    0.6029878623321161    0.0454870952307305     O003
    0.7453881428209156    0.1073464875116944    0.5498775790592627     O004
    0.7453644419705495    0.1074881264843439    0.0453573932838641     O005
    0.2494567298998140    0.6029862135286002    0.5498417857844720     O006
