Generated by VASPKIT code
 1.000000
    9.0691673747937767    0.0833533507475590   -1.3094154733045398
   -0.2670872275624886    8.8246457184444207    0.1817286924361993
   -0.1788707284121067    0.1327018796874972   11.0539469148985283
   Ga   As
     5    11
Direct
    0.5703578472773987    0.2403056649665090    0.1492441305710417    Ga001
    0.0429264440288282    0.6745281231778362    0.0663595465915765    Ga002
    0.9112809708867372    0.1563566566963554    0.6510171076534400    Ga003
    0.6489752216078410    0.4788612792882789    0.7967905584926438    Ga004
    0.6395655316465992    0.0221630671830238    0.3815297666222141    Ga005
    0.6760996999093435    0.0133071007256652    0.6183260965407044    As001
    0.1145968910751789    0.6471288950784375    0.2901195376858322    As002
    0.4352297849356913    0.5494630394265455    0.6365487042541281    As003
    0.5050468071311056    0.2765342667577683    0.9289562984085649    As004
    0.6078966814525510    0.7654974736687139    0.3038547261152699    As005
    0.9004942342298289    0.4188835336540755    0.7195805135839880    As006
    0.7678379399758690    0.6493926238380152    0.9766002628565869    As007
    0.1341687190523624    0.0502309639553725    0.6029956048430490    As008
    0.2173135262790170    0.7569648401889820    0.9340755168362145    As009
    0.4120178061792910    0.1906634963603719    0.3034671774453733    As010
    0.8222616054751457    0.2029426260100345    0.2659639775310689    As011
