Na5 Sn4 B2 P4 H1 O20
1.0
   6.6267771720886239    0.0000000000000000    1.4900509119033813
   2.6612754256710502    7.8749542664058518   -1.0031912326812753
   0.0000000000000000    0.0000000000000000    9.9428358078002930
Na Sn B P H O
5 4 2 4 1 20
direct
   0.5037932395935059    0.0419290177524090    0.9114771485328674 Na
   0.8318303823471069    0.5067293643951416    0.5412236452102661 Na
   0.5097533464431762    0.3027025759220123    0.2253249287605286 Na
   0.8673250079154968    0.9708041548728943    0.5695706605911255 Na
   0.7300258278846741    0.9061987400054932    0.2323850542306900 Na
   0.3271644115447998    0.2494852393865585    0.6478096246719360 Sn
   0.0044692489318550    0.4740746915340424    0.1755918562412262 Sn
   0.1338091939687729    0.7405801415443419    0.7910159230232239 Sn
   0.2916207015514374    0.7908877730369567    0.1645437777042389 Sn
   0.7547821402549744    0.2963329255580902    0.8049875497817993 B
   0.5353628993034363    0.8441174626350402    0.5222911238670349 B
   0.9305838942527771    0.1357232630252838    0.9966314435005188 P
   0.1148945242166519    0.1358676254749298    0.3674083054065704 P
   0.7754294872283936    0.6304500699043273    0.9005828499794006 P
   0.3372609019279481    0.5988113880157470    0.4664303958415985 P
   0.3513053059577942    0.3760797381401062    0.9633745551109314 H
   0.7654000520706177    0.7683480978012085    0.8106011748313904 O
   0.8565883040428162    0.3112637102603912    0.1031005457043648 O
   0.6300205588340759    0.6995634436607360    0.0532392598688602 O
   0.0125665273517370    0.5619674324989319    0.9061913490295410 O
   0.0829488113522530    0.3171362280845642    0.3234964311122894 O
   0.3512752354145050    0.0171570032835007    0.2819506227970123 O
   0.0850479602813721    0.1729860901832580    0.5298089385032654 O
   0.9336810708045959    0.1881750077009201    0.8441819548606873 O
   0.6211165189743042    0.2282199859619140    0.7599007487297058 O
   0.9547863602638245    0.0455500036478043    0.3335903882980347 O
   0.7204388380050659    0.4760566353797912    0.8179906606674194 O
   0.4933634698390961    0.9919449090957642    0.6179209947586060 O
   0.1570156514644623    0.0242154672741890    0.9858447909355164 O
   0.1260349303483963    0.6038307547569275    0.5727244019508362 O
   0.3166615664958954    0.3477891385555267    0.0551209673285484 O
   0.5270819067955017    0.4489681720733643    0.4607138931751251 O
   0.3129596412181854    0.6076581478118896    0.3158165216445923 O
   0.7227094769477844    0.7639274597167968    0.4370667040348053 O
   0.7557753324508667    0.0580661445856094    0.0442484766244888 O
   0.3557264506816864    0.7810426950454711    0.5281110405921936 O
