K1 Na1 Ni1 F4
1.0
   3.7888300418853755    0.0000000000000000    1.1128149032592771
  -0.3423967175010275    3.7775065163535797    1.1194049119949341
   0.0000000000000000    0.0000000000000000    6.9422349929809570
K Na Ni F
1 1 1 4
direct
   0.8824936151504518    0.5967053771018982    0.7084529399871826 K
   0.1793013662099838    0.8936100602149963    0.1166183277964592 Na
   0.5339676141738892    0.2485687434673309    0.4064504504203797 Ni
   0.6876164078712463    0.4000944197177887    0.0998638272285461 F
   0.0380757153034210    0.2507733404636383    0.4002900719642640 F
   0.3735135495662689    0.0879798978567123    0.7289308309555055 F
   0.5357610583305359    0.7515398263931274    0.4003995060920716 F
