Na6 Mo2 O9                              
   1.00000000000000     
     5.3433840307614648    0.0077994062804335    0.0447925921700699
    -0.0170800976548680    7.7203315604897282   -0.0084606191636603
     0.0284774460482073   -0.0319577457018062    7.5811591423175022
   Na   Mo   O 
     6     2     9
Direct
  0.4659876897111623  0.9127003627757047  0.2856674626298807
  0.9960047673731974  0.6267082080203824  0.5825217633684819
  0.9972220893378705  0.1963114231903357  0.5836136152212911
  0.5610246971305374  0.4108340645624056  0.8312872620465581
  0.9954809774637182  0.6535540957937397  0.0459790170467861
  0.9944128848279307  0.1698181939514428  0.0470088043102202
  0.4527512141627367  0.9103334669038775  0.7980609970002500
  0.5400427672217691  0.4099010001006520  0.3157887325723133
  0.2597930269774014  0.9121430842884151  0.9928002592259210
  0.1682580678013559  0.4120385102212200  0.3378360670874000
  0.6294766118579258  0.2059168210417166  0.2142675920989797
  0.6671546494475133  0.4116328233248384  0.5426002089419644
  0.6814698976867738  0.1082497027125858  0.7996991055484660
  0.2741102917869763  0.9126585568764356  0.5850354716611560
  0.1046213411092278  0.4114202475354187  0.8411936264939097
  0.6355298840731382  0.6256340301109156  0.2162607798447657
  0.6795997163191327  0.7147424466205388  0.8000511861359964
 
  0.00000000E+00  0.00000000E+00  0.00000000E+00
  0.00000000E+00  0.00000000E+00  0.00000000E+00
  0.00000000E+00  0.00000000E+00  0.00000000E+00
  0.00000000E+00  0.00000000E+00  0.00000000E+00
  0.00000000E+00  0.00000000E+00  0.00000000E+00
  0.00000000E+00  0.00000000E+00  0.00000000E+00
  0.00000000E+00  0.00000000E+00  0.00000000E+00
  0.00000000E+00  0.00000000E+00  0.00000000E+00
  0.00000000E+00  0.00000000E+00  0.00000000E+00
  0.00000000E+00  0.00000000E+00  0.00000000E+00
  0.00000000E+00  0.00000000E+00  0.00000000E+00
  0.00000000E+00  0.00000000E+00  0.00000000E+00
  0.00000000E+00  0.00000000E+00  0.00000000E+00
  0.00000000E+00  0.00000000E+00  0.00000000E+00
  0.00000000E+00  0.00000000E+00  0.00000000E+00
  0.00000000E+00  0.00000000E+00  0.00000000E+00
  0.00000000E+00  0.00000000E+00  0.00000000E+00
