Rb2 Ga1 I1 Cl4                          
   1.00000000000000     
     6.0640698441635088   -0.6545508989657818    4.0872951355022291
     1.7683514899263377    6.0985474220557112    3.2562420231919127
     0.1679472145415625   -0.8655770597344913    8.0577841583933285
   Rb   Ga   I    Cl
     2     1     1     4
Direct
  0.8782963150928225  0.9803220710508856  0.8976919810035482
  0.3835350174174795  0.4742696937182461  0.3956894534027465
  0.6276688354225527  0.7538075501921475  0.6165051971000231
  0.9668084366787880  0.4253000041281131  0.9481026158894307
  0.4441822625591081  0.9346544080439168  0.4380670058824045
  0.3746488736919742  0.7941846526181565  0.9362129448954896
  0.9148066684926383  0.8992678935953848  0.4736693429294050
  0.7467165983808428  0.4356322051229969  0.5685962804072663
 
  0.00000000E+00  0.00000000E+00  0.00000000E+00
  0.00000000E+00  0.00000000E+00  0.00000000E+00
  0.00000000E+00  0.00000000E+00  0.00000000E+00
  0.00000000E+00  0.00000000E+00  0.00000000E+00
  0.00000000E+00  0.00000000E+00  0.00000000E+00
  0.00000000E+00  0.00000000E+00  0.00000000E+00
  0.00000000E+00  0.00000000E+00  0.00000000E+00
  0.00000000E+00  0.00000000E+00  0.00000000E+00
