K3 Na7 Sn2 As6
1.0
   4.7292943000793457    0.0000000000000000   -0.0325875282287600
  -0.0055795220080691    8.8349658514101943   -0.0577834807336351
   0.0000000000000000    0.0000000000000000   12.0248470306396484
K Na Sn As
3 7 2 6
direct
   0.3899596333503723    0.3853363394737244    0.0066872634924948 K
   0.3857572674751282    0.6995776295661926    0.1384924203157425 K
   0.3895016312599182    0.0427303537726402    0.4876976907253265 K
   0.8873705863952637    0.8411412239074707    0.3237569630146027 Na
   0.8912923336029053    0.8687469959259033    0.8196607232093811 Na
   0.8910549283027649    0.4900976717472077    0.7948341369628906 Na
   0.8916139006614685    0.1929975897073746    0.6762502193450928 Na
   0.3881169855594635    0.3643746376037598    0.3247099518775940 Na
   0.8889665603637695    0.5070435404777527    0.4781160950660706 Na
   0.3891383409500122    0.0095409220084548    0.9701924324035645 Na
   0.8900204300880432    0.1853810846805572    0.1519778519868851 Sn
   0.3896714448928833    0.6776852607727051    0.6488471627235413 Sn
   0.8893191218376160    0.8240870833396911    0.5733944177627563 As
   0.3907421231269836    0.3859691321849822    0.5952329635620117 As
   0.3887155652046204    0.0469425506889820    0.2239935398101807 As
   0.8881499171257019    0.4800141453742981    0.2193565666675568 As
   0.3898985385894775    0.6926854252815247    0.8623172640800476 As
   0.8900682926177979    0.1783486306667328    0.9267596006393433 As
