Generated by VASPKIT code
 1.000000
    4.0667230874406179   -0.0021427610428606    0.0056192424025758
    0.0015328791409625    4.0675361396261280    0.0003161307843751
   -0.0120381654763858   -0.0008746273332115    8.2672733836244596
   Nd   Hf   O 
     1     2     6
Direct
    0.6887332428232879    0.6814867918398262    0.4789253033452221    Nd001
    0.1893384759386802    0.1829671429372043    0.7315494681998966    Hf001
    0.1893756642596240    0.1831215643516874    0.2263419842582821    Hf002
    0.1886837274812682    0.1841141598062086    0.9788717962409564     O001
    0.6892080235647317    0.1840472555890775    0.2621790177056781     O002
    0.1892224155596152    0.6835365827589948    0.2623682098228269     O003
    0.1890055372601528    0.1848607038748050    0.4788968235986116     O004
    0.1893134503117774    0.6834672191575510    0.6953958523672369     O005
    0.6892251206601600    0.1836287136175162    0.6952457020703976     O006
