Na5 Li1 Zn1 Ga2 Si4 O15
1.0
   5.8397808074951163    0.0000000000000000    0.0522379092872137
  -0.4045912282254912    5.4334502805301570   -0.0682752132415773
   0.0000000000000000    0.0000000000000000   11.6681852340698242
Na Li Zn Ga Si O
5 1 1 2 4 15
direct
   0.7759733200073242    0.2057371139526367    0.5185649394989014 Na
   0.2392583787441254    0.6223490238189697    0.1668790280818939 Na
   0.3008892238140106    0.2026777565479278    0.3500842154026031 Na
   0.8649968504905701    0.7161887884140015    0.3794401586055756 Na
   0.3179022371768951    0.2266431450843811    0.6621928215026855 Na
   0.5406066179275513    0.2395802438259125    0.0009488668292761 Li
   0.3780507743358612    0.7374510169029235    0.8785964250564575 Zn
   0.7130164504051208    0.7254759669303894    0.1047114953398705 Ga
   0.8204434514045715    0.6660825014114380    0.6532829999923706 Ga
   0.0549351684749126    0.0695609226822853    0.0018469095230103 Si
   0.7881430387496948    0.1028405278921127    0.7765411734580994 Si
   0.3406249880790710    0.7086824774742126    0.4963257312774658 Si
   0.8273445963859558    0.2234079986810684    0.2141970992088317 Si
   0.5987238883972168    0.8598889708518982    0.7635161876678467 O
   0.8487657904624939    0.1537525951862335    0.9130557775497437 O
   0.0504132546484470    0.2406436055898666    0.1171636655926704 O
   0.4981914758682251    0.5876265168190002    0.0144570088014007 O
   0.2695829868316650    0.6239407062530518    0.3656868934631348 O
   0.2886165976524353    0.0773171186447144    0.9316829442977905 O
   0.7109726071357727    0.3582576513290405    0.7233851552009583 O
   0.9036260843276975    0.1244612857699394    0.3359482884407043 O
   0.9923232197761536    0.7873003482818604    0.0411880165338516 O
   0.6002351641654968    0.6022232770919800    0.5307868719100952 O
   0.7476975917816162    0.5074480772018433    0.2236475050449371 O
   0.1167467162013054    0.5776488184928894    0.5819451808929443 O
   0.3852705657482147    0.0056147454306483    0.5077693462371826 O
   0.9808065891265869    0.9907338023185729    0.6941459774971008 O
   0.6282711029052734    0.0448098368942738    0.1516835391521454 O
