Generated by VASPKIT code
 1.000000
    5.1736474637996208    0.0071864264067255    0.0973065498000584
   -0.0173963695212816    7.3457906992951587    0.0140618164937083
    0.1040948416270435   -0.0073998147046867    7.5476493665575024
   Mo   O 
     2     9
Direct
    0.4613971630210592    0.9119019299639346    0.7927522460833478    Mo001
    0.5278079086142996    0.4123704697654523    0.3231758698483555    Mo002
    0.2497560252016342    0.9118665383969067    0.9884514885930917     O001
    0.1850192374404336    0.4126946339686635    0.3539980948791435     O002
    0.6260311334499372    0.2076769449847288    0.2096614253683881     O003
    0.6628023996474988    0.4107575743167952    0.5340865961474959     O004
    0.6688258169443423    0.1021006961308920    0.7971954611232839     O005
    0.2819775417598813    0.9122393101176529    0.5904364054630442     O006
    0.1070852025127175    0.4119046072671654    0.8388154621715679     O007
    0.6280296160848069    0.6181798435983072    0.2119591034741818     O008
    0.6678730408780748    0.7214450719836967    0.7968477492760695     O009
