Na6 Cr2 O8                              
   1.00000000000000     
     6.0057679821954562   -0.0013132771915845    0.0129609663487458
     0.0030472785595346    7.0705403052590068   -0.0080337571939172
    -0.0017402399511159   -0.0008400654007763    5.5569530243534588
   Na   Cr   O 
     6     2     8
Direct
  0.0325668645411531  0.5842322712846252  0.5063613117838188
  0.3843634155414040  0.0846429174218050  0.0078529277733821
  0.5530552365056653  0.3310645649666728  0.5039290029552137
  0.8655974369590340  0.8300294037021401  0.0044701744192411
  0.3846197832547634  0.5775460380942439  0.0071376949100342
  0.0339738957052830  0.0767251261264332  0.5068428865486175
  0.5319213070939082  0.8307213949018636  0.5148973485551148
  0.8857765194239507  0.3315287066585846  0.0147722911287678
  0.8916053604492535  0.3313008184204361  0.3233000241170805
  0.3992384199786714  0.6287403981045050  0.4168197262632460
  0.8032612307161859  0.8309283071874579  0.4176370194532091
  0.0182415202520487  0.1290135220826407  0.9165865581267174
  0.5276383817029572  0.8309484652357128  0.8238583830371934
  0.0191872506594637  0.5329058438658957  0.9164547138712434
  0.6140243552208057  0.3311060433724049  0.9179964534333203
  0.3995906936637429  0.0331071277403996  0.4168021199130381
 
  0.00000000E+00  0.00000000E+00  0.00000000E+00
  0.00000000E+00  0.00000000E+00  0.00000000E+00
  0.00000000E+00  0.00000000E+00  0.00000000E+00
  0.00000000E+00  0.00000000E+00  0.00000000E+00
  0.00000000E+00  0.00000000E+00  0.00000000E+00
  0.00000000E+00  0.00000000E+00  0.00000000E+00
  0.00000000E+00  0.00000000E+00  0.00000000E+00
  0.00000000E+00  0.00000000E+00  0.00000000E+00
  0.00000000E+00  0.00000000E+00  0.00000000E+00
  0.00000000E+00  0.00000000E+00  0.00000000E+00
  0.00000000E+00  0.00000000E+00  0.00000000E+00
  0.00000000E+00  0.00000000E+00  0.00000000E+00
  0.00000000E+00  0.00000000E+00  0.00000000E+00
  0.00000000E+00  0.00000000E+00  0.00000000E+00
  0.00000000E+00  0.00000000E+00  0.00000000E+00
  0.00000000E+00  0.00000000E+00  0.00000000E+00
