Na16 Al2 Cu1 O12                        
   1.00000000000000     
     7.3547065499960569   -0.0054386183694265   -1.1139701755581404
    -0.2667119637358171    5.8515816509954055   -0.1754249777305927
    -0.0022659362385935    0.0013666503055131    9.7050438057992157
   Na   Al   Cu   O 
    16     2     1    12
Direct
  0.0755014615080895  0.7577382404736016  0.0899619817989648
  0.0175938687192484  0.4692412394474760  0.5937083263131204
  0.8657323482122524  0.0886566515167416  0.9631186736971900
  0.7924873972532605  0.5901086166503430  0.8366230786913372
  0.7657601280194997  0.9810810940072100  0.6618336290098136
  0.5236864438661324  0.2348614401604087  0.8149244376275304
  0.4280287085460252  0.6376984813584905  0.6553277964118194
  0.9006767791319433  0.7865331653332487  0.3794617776653921
  0.3776049450823575  0.4230107207620535  0.1523480546049638
  0.2227797758442958  0.5518160968243114  0.8846483007607421
  0.1064204831918495  0.2500525546721220  0.3090094834950817
  0.4048208521886199  0.1208986659208464  0.5442330130730360
  0.6152977758010723  0.0471259856807949  0.2884692863848632
  0.2523225281534033  0.0937006975462688  0.9569149874526636
  0.8097433976576119  0.4361730978953486  0.1549560699222206
  0.3450891974991332  0.7278472371898993  0.3562954550544133
  0.6501278719902706  0.4634491063384694  0.4675531443844992
  0.5779863562533756  0.7724986502846343  0.0276767967022455
  0.1351270597002928  0.9777160042478432  0.6845757528121048
  0.0262278337867780  0.8493702847474007  0.8257754919913398
  0.7909931242425536  0.8525301916081292  0.1378638676205413
  0.2401703799279866  0.2784482600815437  0.7100016425065674
  0.1759678822803060  0.8348595930341768  0.5167799667384332
  0.0796119644708998  0.3632010765547317  0.0670883437457673
  0.6330955959972786  0.7683647400391890  0.4760010163875060
  0.6816207201654678  0.3632695579841604  0.6423144255486773
  0.3900383801981748  0.8427897706550248  0.1162403052798847
  0.4360476898697971  0.3495860408607708  0.3744581407283182
  0.5814343242999088  0.8783527449832229  0.8562317413434357
  0.8368731500931619  0.3807505483786174  0.3844830513139839
  0.5633347041632969  0.4686099331669568  0.9956326038197046
 
  0.00000000E+00  0.00000000E+00  0.00000000E+00
  0.00000000E+00  0.00000000E+00  0.00000000E+00
  0.00000000E+00  0.00000000E+00  0.00000000E+00
  0.00000000E+00  0.00000000E+00  0.00000000E+00
  0.00000000E+00  0.00000000E+00  0.00000000E+00
  0.00000000E+00  0.00000000E+00  0.00000000E+00
  0.00000000E+00  0.00000000E+00  0.00000000E+00
  0.00000000E+00  0.00000000E+00  0.00000000E+00
  0.00000000E+00  0.00000000E+00  0.00000000E+00
  0.00000000E+00  0.00000000E+00  0.00000000E+00
  0.00000000E+00  0.00000000E+00  0.00000000E+00
  0.00000000E+00  0.00000000E+00  0.00000000E+00
  0.00000000E+00  0.00000000E+00  0.00000000E+00
  0.00000000E+00  0.00000000E+00  0.00000000E+00
  0.00000000E+00  0.00000000E+00  0.00000000E+00
  0.00000000E+00  0.00000000E+00  0.00000000E+00
  0.00000000E+00  0.00000000E+00  0.00000000E+00
  0.00000000E+00  0.00000000E+00  0.00000000E+00
  0.00000000E+00  0.00000000E+00  0.00000000E+00
  0.00000000E+00  0.00000000E+00  0.00000000E+00
  0.00000000E+00  0.00000000E+00  0.00000000E+00
  0.00000000E+00  0.00000000E+00  0.00000000E+00
  0.00000000E+00  0.00000000E+00  0.00000000E+00
  0.00000000E+00  0.00000000E+00  0.00000000E+00
  0.00000000E+00  0.00000000E+00  0.00000000E+00
  0.00000000E+00  0.00000000E+00  0.00000000E+00
  0.00000000E+00  0.00000000E+00  0.00000000E+00
  0.00000000E+00  0.00000000E+00  0.00000000E+00
  0.00000000E+00  0.00000000E+00  0.00000000E+00
  0.00000000E+00  0.00000000E+00  0.00000000E+00
  0.00000000E+00  0.00000000E+00  0.00000000E+00
