Generated by VASPKIT code
 1.000000
    4.9636269998607485   -0.0005883497912323    2.8646450668732948
    1.6552357241543831    4.6773169296832044    2.8660473818089010
   -0.0002538261029291   -0.0002774097941705    5.7294392550604814
   Sr   Hf   Sb   O 
     1     1     1     6
Direct
    0.8548697990440494    0.7458094863611268    0.2047839061027291    Sr001
    0.6047040550692762    0.4958984415587074    0.9548909466393296    Hf001
    0.1047393069905473    0.9958435463410860    0.4548120287008388    Sb001
    0.3504847283770069    0.2411035967382107    0.2089491325250273     O001
    0.3503339315193881    0.7496413491291677    0.7005474271683798     O002
    0.8592340021989664    0.2410781099711330    0.2089924009948896     O003
    0.3504985509054426    0.7498901276798025    0.2092895392238848     O004
    0.8590820203729320    0.2412451236954596    0.7007417591767325     O005
    0.8592053480937714    0.7502391596584449    0.7003259536093185     O006
