Generated by VASPKIT code
 1.000000
    5.0118080972502526    0.0154959519603291   -2.5081206276221231
   -1.2653210645122308    4.8489017234970531   -2.5104492176003883
   -0.0361514932305182   -0.0294249355473471    6.2167441653812414
   Ga   O 
     1     4
Direct
    0.5353634251439278    0.8196742274241198    0.7999886117033855    Ga001
    0.8668890728250644    0.7557052650996675    0.0257383762459161     O001
    0.4291021181159427    0.1081275889130996    0.0253352060682570     O002
    0.5979649173441303    0.9250895582706037    0.5740135478693266     O003
    0.2459174980018451    0.4879899526427101    0.5736626039834535     O004
