K2 Na8 Ga2 O8
1.0
   5.8736000061035165    0.0000000000000000   -1.2322169542312629
  -0.2614571515584315    6.5023511276371284   -0.9399689435958857
   0.0000000000000000    0.0000000000000000    8.4419393539428711
K Na Ga O
2 8 2 8
direct
   0.2764790058135986    0.2959406375885010    0.8708719611167908 K
   0.4246820807456970    0.6843649744987488    0.6342054605484009 K
   0.5617279410362244    0.0823988467454910    0.2046960443258286 Na
   0.1609924882650375    0.3430435061454773    0.2587252855300903 Na
   0.7969990372657776    0.0072408476844430    0.9121387004852295 Na
   0.9070323705673218    0.9722679257392883    0.5938616394996643 Na
   0.1433328688144684    0.8989391922950746    0.3014330565929413 Na
   0.5442968010902405    0.6367461681365967    0.2477892786264420 Na
   0.8999076485633850    0.4332106113433838    0.5788710117340088 Na
   0.8054589033126831    0.5470411181449890    0.9270864129066467 Na
   0.2261538952589035    0.7912602424621583    0.9749339818954468 Ga
   0.4793100655078888    0.1893105953931808    0.5314261913299561 Ga
   0.1602370738983154    0.0538626499474049    0.0716515481472015 O
   0.1542607247829438    0.6039280891418458    0.1058566495776177 O
   0.1641008853912354    0.1960500627756119    0.5200669169425964 O
   0.5407751798629761    0.7834718823432923    0.9866670370101929 O
   0.5436215996742249    0.9258534312248230    0.4348388612270355 O
   0.5508670806884766    0.3759112060070038    0.4002939462661743 O
   0.0314661189913750    0.7278801202774049    0.7665696144104004 O
   0.6737550497055054    0.2528111934661865    0.7398732304573059 O
