Na7 Os1 O6
1.0
   5.5868344306945801    0.0000000000000000    3.2137444019317627
   1.8624502237693854    5.2790967375613675    3.1842927932739262
   0.0000000000000000    0.0000000000000000    6.4439163208007812
Na Os O
7 1 6
direct
   0.9895104169845581    0.9936385750770568    0.4177123010158540 Na
   0.9893087148666382    0.9938612580299377    0.9182333946228028 Na
   0.4893329143524170    0.9938716888427733    0.4180730581283569 Na
   0.9893130064010620    0.4937724471092224    0.9180212616920471 Na
   0.9893742799758911    0.4945668876171112    0.4167598783969881 Na
   0.4891061484813690    0.4939298629760742    0.4184165298938752 Na
   0.4890514314174652    0.9947996139526366    0.9172229766845703 Na
   0.4894588291645050    0.4935615956783294    0.9181459546089172 Os
   0.7102241516113281    0.2737933695316315    0.1382002234458924 O
   0.7102280855178833    0.7134997248649597    0.6972742676734924 O
   0.2693501412868500    0.2733506858348846    0.1380337029695511 O
   0.2680928707122803    0.7148977518081664    0.1382647752761842 O
   0.2681491971015930    0.7152085304260253    0.6970584392547607 O
   0.7097674012184144    0.2735165953636169    0.6979746222496033 O
