Na4 Zn3 O5                              
   1.00000000000000     
     6.0872947885165951   -0.0088785775501302    0.6216227025647476
     2.3419997993729798    4.8180078269304252    1.8920186169613382
    -0.0652262857047151    0.3351897879373081    5.7990569984217011
   Na   Zn   O 
     4     3     5
Direct
  0.3083869335408225  0.1073648196070027  0.0484287071550680
  0.7199119221347795 -0.0037891141157027  0.3932558160771022
  0.2730576809293052  0.9632766308429789  0.6666558395306051
  0.6242027244870889  0.3741162995824104  0.8390690742518895
  0.2528915668270070  0.5881416995758034  0.3384898204103696
  0.9297807025460438  0.6432638483843959  0.8861777052273337
  0.7930799223628976  0.4865568232082207  0.3532250391986528
  0.2534810055368633  0.5720612910352737  0.0136101160491443
  0.0218719841977010  0.4984338308160597  0.5688664020867196
  0.4721836011020888  0.7158125806567474  0.4192170588238204
  0.6319580370587412  0.9863837685553642  0.7872406487924557
  0.9035352456325951  0.2778312368629229  0.1465909292981988
 
  0.00000000E+00  0.00000000E+00  0.00000000E+00
  0.00000000E+00  0.00000000E+00  0.00000000E+00
  0.00000000E+00  0.00000000E+00  0.00000000E+00
  0.00000000E+00  0.00000000E+00  0.00000000E+00
  0.00000000E+00  0.00000000E+00  0.00000000E+00
  0.00000000E+00  0.00000000E+00  0.00000000E+00
  0.00000000E+00  0.00000000E+00  0.00000000E+00
  0.00000000E+00  0.00000000E+00  0.00000000E+00
  0.00000000E+00  0.00000000E+00  0.00000000E+00
  0.00000000E+00  0.00000000E+00  0.00000000E+00
  0.00000000E+00  0.00000000E+00  0.00000000E+00
  0.00000000E+00  0.00000000E+00  0.00000000E+00
