Na21 Ga4 As11
1.0
   7.6711916923522958    0.0000000000000000   -3.5976066589355460
  -1.6674092465138122    8.2617268385997509   -2.1999976634979244
   0.0000000000000000    0.0000000000000000   14.1121759414672852
Na Ga As
21 4 11
direct
   0.8875231742858886    0.4676558673381806    0.4043999314308167 Na
   0.9197121858596801    0.0758673697710037    0.0844894573092460 Na
   0.7015778422355652    0.3670649230480194    0.1258242130279541 Na
   0.7997304201126098    0.6908106207847595    0.0546098463237286 Na
   0.1449245959520340    0.4316828250885010    0.0962310880422592 Na
   0.2714422941207886    0.0787954851984978    0.4155765473842621 Na
   0.4820813536643981    0.0808652192354202    0.8732229471206665 Na
   0.4780804216861724    0.5257334113121033    0.3489161133766174 Na
   0.1077232286334038    0.1920655667781830    0.8210242390632629 Na
   0.3074902594089508    0.8318671584129335    0.6326208710670471 Na
   0.1879444122314453    0.9498649239540101    0.9848346710205078 Na
   0.9769607186317443    0.5803635716438293    0.8837080001831055 Na
   0.1280999332666397    0.6816409230232239    0.3295693099498749 Na
   0.8401505351066588    0.0753619745373726    0.3056335747241974 Na
   0.7723173499107360    0.9212652444839479    0.7749128937721252 Na
   0.9190241098403930    0.9505808353424072    0.5522271394729614 Na
   0.0900260135531425    0.4333826899528503    0.6672012805938721 Na
   0.6368494033813477    0.1860606074333191    0.6489717960357666 Na
   0.4002233445644378    0.1529829055070877    0.2300310581922531 Na
   0.7480706572532653    0.5882958173751831    0.6122590303421021 Na
   0.3599313497543334    0.4473628997802734    0.5375604629516602 Na
   0.5292536020278931    0.3895858228206635    0.8224735260009766 Ga
   0.4868263602256774    0.7423909306526184    0.1333223730325699 Ga
   0.3957101702690124    0.7315043807029724    0.8837043642997742 Ga
   0.5469524860382080    0.9101020693778992    0.3732926249504089 Ga
   0.1055890470743179    0.3294315040111542    0.2930788099765778 As
   0.8154274225234984    0.2710473835468292    0.9021525382995605 As
   0.5687632560729980    0.9707205891609193    0.0679110586643219 As
   0.3847098052501678    0.4849791824817657    0.9610012769699097 As
   0.2810483574867249    0.1848693788051605    0.6542947888374329 As
   0.2294059246778488    0.8110262155532837    0.1795566380023957 As
   0.1004162877798080    0.7945762276649475    0.7571675181388855 As
   0.7524141073226928    0.7349392771720886    0.3084123730659485 As
   0.6699800491333008    0.2354826033115387    0.4572109580039978 As
   0.5882791280746460    0.6507220864295959    0.7902598977088928 As
   0.5182412862777710    0.8170610666275024    0.5200293660163879 As
