Na4 Mn4 Se6
1.0
   6.9820976257324219    0.0000000000000000    0.3288576006889349
   3.5322625252977082    6.0591056703428459    0.3256769180297848
   0.0000000000000000    0.0000000000000000    8.1829481124877930
Na Mn Se
4 4 6
direct
   0.3440419733524322    0.8750959038734437    0.0887539312243462 Na
   0.2081730216741562    0.7381646037101747    0.4510834813117981 Na
   0.6850383281707764    0.2611284255981445    0.9508080482482910 Na
   0.8228315114974976    0.3949016630649567    0.5890155434608459 Na
   0.3915422260761261    0.0276659503579140    0.6859552860260010 Mn
   0.0548118054866791    0.6915029287338257    0.8529099225997925 Mn
   0.6381496787071228    0.1075221747159958    0.3532248437404633 Mn
   0.9750425219535828    0.4441953599452972    0.1863154768943787 Mn
   0.6183211207389832    0.4638471305370331    0.2691987454891205 Se
   0.7765094637870789    0.9768855571746826    0.6525251269340515 Se
   0.1047518178820610    0.3080571293830872    0.8869065046310425 Se
   0.2543588578701019    0.1577952057123184    0.3861398994922638 Se
   0.4123618602752685    0.6716997027397157    0.7697451114654541 Se
   0.9249181151390076    0.8271065950393677    0.1532727777957916 Se
