Na4 Bi2 S5
1.0
   4.1779212951660165    0.0000000000000000   -0.0106843113899229
  -0.0047303907115335    6.2717090887191009   -1.9365247488021857
   0.0000000000000000    0.0000000000000000   10.7303667068481445
Na Bi S
4 2 5
direct
   0.8080037236213684    0.9767792224884033    0.9013558030128479 Na
   0.3065696954727173    0.4375472664833069    0.7142426967620850 Na
   0.8065248131752014    0.0564838424324989    0.2405577152967453 Na
   0.3069538772106171    0.4573670625686646    0.4011854231357574 Na
   0.8062309622764587    0.9278538227081300    0.5474646687507629 Bi
   0.3086920976638794    0.5237538814544679    0.0751146674156189 Bi
   0.8077807426452637    0.6724342703819276    0.3012255430221558 S
   0.3098909854888916    0.8644292950630188    0.6780861020088196 S
   0.8077102303504944    0.2920638322830200    0.5163658261299133 S
   0.3080682456493378    0.1401314437389374    0.1038922592997551 S
   0.8080580234527588    0.5082367658615113    0.9172867536544800 S
