Generated by VASPKIT code
 1.000000
    5.0899631803629530    0.5033774459113777    2.0933191620714235
    2.4592469045749543    4.7185215453569640    2.3813031732917715
    0.1456818367478158    0.5386441068826140    6.4025037136918588
   Au   C    O 
     1     2     6
Direct
    0.2083761294107727    0.0915943576264594    0.0129047627484185    Au001
    0.6634455389517826    0.6159441367679519    0.7715282183418342     C001
    0.7521602938536355    0.5660374199384045    0.2551871996515516     C002
    0.5806708778961424    0.4290971859300366    0.8352391137623911     O001
    0.9467541416032743    0.2622315488519269    0.3265379520864050     O002
    0.4678079126647924    0.6534388024976531    0.2565684201748468     O003
    0.4678180780467492    0.9196749951747087    0.7000351329721187     O004
    0.9477339781611516    0.5294236191275761    0.7697736790792091     O005
    0.8357253372177087    0.7520289935985448    0.1921742784320399     O006
