Na10 Fe2 O8
1.0
   6.1948990821838379    0.0000000000000000    0.0067916205152868
  -0.2507063880668302    6.1675101619961730    0.0133918877691036
   0.0000000000000000    0.0000000000000000    6.8906893730163574
Na Fe O
10 2 8
direct
   0.3753299713134766    0.8354997634887695    0.0111038908362389 Na
   0.3684007525444031    0.2479428946971893    0.2219045460224152 Na
   0.0183546170592308    0.8973342776298522    0.3014709651470184 Na
   0.6462492942810059    0.6182913780212402    0.7610566616058350 Na
   0.4293572902679443    0.8908320069313048    0.5117728710174561 Na
   0.3676658570766449    0.2471678406000137    0.8020040392875671 Na
   0.0564904920756817    0.4879308342933655    0.0123857306316495 Na
   0.6454383730888367    0.6195111274719238    0.2613558173179626 Na
   0.7803891301155090    0.2096396088600159    0.5110036730766296 Na
   0.0181244798004627    0.8981937766075133    0.7231654524803162 Na
   0.1446230262517929    0.4905623197555541    0.5121253132820129 Fe
   0.7748463153839111    0.1216203123331070    0.0124214887619019 Fe
   0.6525740027427673    0.9987009763717651    0.2428202927112579 O
   0.1679474562406540    0.1775426566600800    0.5124489665031433 O
   0.6846996545791626    0.4034840762615204    0.0118286451324821 O
   0.2671475410461426    0.6138330698013306    0.7423579692840576 O
   0.8611949682235718    0.5806888341903687    0.5110509395599365 O
   0.6537839770317078    0.9984039068222045    0.7817580103874207 O
   0.0884513780474663    0.0979432836174965    0.0123513638973236 O
   0.2674391269683838    0.6130048632621765    0.2812523543834686 O
