Na5 Zn1 In2 Br12                        
   1.00000000000000     
     7.3478173168688450   -0.1918394713099829   -0.7866537009976342
     0.8466191367842008    7.2253027773628320   -2.4099125618714523
     0.0720917894449440    0.2461306942343804   12.0444500571992581
   Na   Zn   In   Br
     5     1     2    12
Direct
  0.5356115288660522  0.0400479209171694  0.0301135818691027
  0.4874639203239607  0.2809227377000869  0.7357700752487008
  0.4681436730089681  0.6756597979151177  0.5205856718373574
  0.0455748566688126  0.4067168809640909  0.0644706668371401
  0.0275828004594061  0.8986452254818287  0.3110603642937068
  0.9651399229697033  0.8642936786119552  0.7689832411997701
  0.5495793931933826  0.6423569830124584  0.1951886699250777
  0.9415149697799338  0.3247733048851147  0.6184986311283140
  0.8428586568668315  0.4121580185084949  0.8293763035554682
  0.1992416153619848  0.0537134822183796  0.5690903199278995
  0.1459086393801885  0.0071441959841281  0.9372044348924675
  0.1494208256623048  0.6038290285474547  0.6387112540975233
  0.2682365544213031  0.5458136550943776  0.2934044506003489
  0.3760365186017003  0.4677102364329226  0.9747697438944962
  0.6331700502036766  0.3006277157019201  0.4991253813602592
  0.6405118970418612  0.9004205668774112  0.7623818293665658
  0.3549841202254510  0.9731389741414527  0.2216198415286892
  0.8087216456267249  0.7651674889254515  0.0956446519068452
  0.7570323831419647  0.3164383643556983  0.1761279947003701
  0.7389051725828868  0.7741899828948001  0.4089806408002870
 
  0.00000000E+00  0.00000000E+00  0.00000000E+00
  0.00000000E+00  0.00000000E+00  0.00000000E+00
  0.00000000E+00  0.00000000E+00  0.00000000E+00
  0.00000000E+00  0.00000000E+00  0.00000000E+00
  0.00000000E+00  0.00000000E+00  0.00000000E+00
  0.00000000E+00  0.00000000E+00  0.00000000E+00
  0.00000000E+00  0.00000000E+00  0.00000000E+00
  0.00000000E+00  0.00000000E+00  0.00000000E+00
  0.00000000E+00  0.00000000E+00  0.00000000E+00
  0.00000000E+00  0.00000000E+00  0.00000000E+00
  0.00000000E+00  0.00000000E+00  0.00000000E+00
  0.00000000E+00  0.00000000E+00  0.00000000E+00
  0.00000000E+00  0.00000000E+00  0.00000000E+00
  0.00000000E+00  0.00000000E+00  0.00000000E+00
  0.00000000E+00  0.00000000E+00  0.00000000E+00
  0.00000000E+00  0.00000000E+00  0.00000000E+00
  0.00000000E+00  0.00000000E+00  0.00000000E+00
  0.00000000E+00  0.00000000E+00  0.00000000E+00
  0.00000000E+00  0.00000000E+00  0.00000000E+00
  0.00000000E+00  0.00000000E+00  0.00000000E+00
