Na10 Mg1 Fe4 O12
1.0
   5.8775420188903809    0.0000000000000000   -0.7334069609642032
  -1.7396162160601161    7.2385349572499624   -0.7093112468719476
   0.0000000000000000    0.0000000000000000    9.5356454849243164
Na Mg Fe O
10 1 4 12
direct
   0.7610828280448914    0.3609754145145416    0.2281738072633743 Na
   0.7454404234886169    0.5434091687202454    0.5046320557594299 Na
   0.7863881587982178    0.8873712420463562    0.3422964215278625 Na
   0.1988148391246796    0.2319301366806030    0.4792105555534363 Na
   0.3013374805450439    0.8102632164955139    0.9361065030097961 Na
   0.2191607803106308    0.4281494617462158    0.0438144728541374 Na
   0.7184501290321350    0.6792913675308228    0.0834657922387123 Na
   0.2694855332374573    0.6380749344825745    0.6567683219909668 Na
   0.2755645811557770    0.0369350686669350    0.1791173815727234 Na
   0.2824797332286835    0.2098132073879242    0.7849906682968140 Na
   0.8982716202735901    0.9084514379501343    0.7640770673751831 Mg
   0.2720161676406860    0.6544620394706726    0.3354747295379639 Fe
   0.6219048500061035    0.0675996467471123    0.6032186150550842 Fe
   0.7007333636283875    0.4740938842296600    0.8097713589668274 Fe
   0.7729246616363525    0.1077191233634949    0.9794569611549377 Fe
   0.0771427303552628    0.0626649037003517    0.9496394395828247 O
   0.4362737238407135    0.5416446328163147    0.8702538013458252 O
   0.0766330137848854    0.7602006196975708    0.2252444475889206 O
   0.5532061457633972    0.3071846067905426    0.6256763935089111 O
   0.4505475759506226    0.8632907271385193    0.4659449756145477 O
   0.4952273964881897    0.5395231246948242    0.2694010436534882 O
   0.8033053874969482    0.3696258068084717    0.9800853133201599 O
   0.9327995777130127    0.6598010063171387    0.7544798254966736 O
   0.9416842460632324    0.0497812405228615    0.6013544797897339 O
   0.5857831239700317    0.9834740161895752    0.7932519912719727 O
   0.0716909617185593    0.4792357683181763    0.4168921411037445 O
   0.6500529050827026    0.0233036447316408    0.1363762170076370 O
