Generated by VASPKIT code
 1.000000
    4.7574889451306035   -0.0935758215454828   -0.4914640697498585
    2.7753927032527650    7.3413179729362898    0.4521083138779506
    0.2195982754755333    0.0302569564376220    5.7667175034466522
   V    H    Se   O 
     1     1     2     8
Direct
    0.3318596205740945    0.1897681308000463    0.3222437421081157     V001
    0.7706455580257454    0.2049395374079619    0.6093926709048871     H001
    0.0561693770264396    0.8592337051750947    0.3868173687231520    Se001
    0.6578056002429663    0.5179488793636172    0.2558698598949863    Se002
    0.5055941983656902    0.3648493054675987    0.1471312463294211     O001
    0.1994049607883087    0.1626484782916100    0.0626835257334753     O002
    0.2185189785903706    0.0170566918501141    0.5055309016373400     O003
    0.7497976032069702    0.6071536389710531    0.0123188603455517     O004
    0.7146415921977307    0.9910799240264299    0.2499783760177325     O005
    0.5613387879569716    0.2155359399703252    0.6044984217463565     O006
    0.0139363111084501    0.3802417292989750    0.4080670971555234     O007
    0.9924833794145703    0.7629061660411828    0.6375760502338019     O008
