Generated by VASPKIT code
 1.000000
    5.0868860619028435    0.0066959917565544   -0.0100917162507003
    0.0023666032794476    5.0827046615398253   -0.0062277339441915
   -0.0150801330562924   -0.0078717861156379    8.3443540651416885
   La   Fe   O 
     2     4    12
Direct
    0.8578054867609857    0.5967355459444635    0.1134267098203914    La001
    0.3576222585973325    0.0962431238916802    0.6139350966043419    La002
    0.8558905139172209    0.0965360621659109    0.8757011232630960    Fe001
    0.3561731036700681    0.5960762708575863    0.3757608448281890    Fe002
    0.8563402382309745    0.0945914307620278    0.3759049437598015    Fe003
    0.3565883145702503    0.5947364645529654    0.8759465608838020    Fe004
    0.1688734809016803    0.9059957648978385    0.8593613428626177     O001
    0.5614031150783111    0.2995606453807833    0.8571638002364970     O002
    0.3582334772531321    0.5942819134327071    0.0984425823508145     O003
    0.6667831719132774    0.7941347221650956    0.8551604656067292     O004
    0.5577361165170444    0.9018852678363350    0.3551045105163136     O005
    0.0614607624624733    0.7988995954273919    0.3573089075828540     O006
    0.8583623150334925    0.0945132926261754    0.5980463615182698     O007
    0.0577770106436785    0.4017144274792903    0.8551247247562056     O008
    0.1678091787343572    0.2932931848977599    0.3554765106103263     O009
    0.6695039999813722    0.4059732616993194    0.3590401316241071     O010
    0.3559364264642881    0.5975600122173306    0.5981694598713516     O011
    0.8554966507058602    0.0980367508915315    0.0978916228944601     O012
