Na2 Mg1 Sn1 H4 O5
1.0
   4.5055489540100098    0.0000000000000000    0.1740137338638306
  -3.1942819622041436    6.8869459070196797   -0.2820847928524025
   0.0000000000000000    0.0000000000000000    7.4883451461791992
Na Mg Sn H O
2 1 1 4 5
direct
   0.1681897342205046    0.7310825586318969    0.4672400653362274 Na
   0.5997260808944702    0.2897535562515259    0.3040816783905029 Na
   0.9941071271896362    0.8812394142150879    0.0556854903697967 Mg
   0.6435781121253967    0.2007386684417724    0.7484247088432311 Sn
   0.9119429588317871    0.0773462206125259    0.3339413702487946 H
   0.6676387190818787    0.5281863212585448    0.6241164207458496 H
   0.6971800923347472    0.8728637099266051    0.5729452371597290 H
   0.0818304046988487    0.5679106712341309    0.0900780111551285 H
   0.0401320122182369    0.1046792790293693    0.2162126153707504 O
   0.9630100131034851    0.6253143548965454    0.1584784537553787 O
   0.6688463091850281    0.7339913249015807    0.5701620578765869 O
   0.6041538715362549    0.0505165457725525    0.5159670114517212 O
   0.7641870975494385    0.4350590705871582    0.5910648107528687 O
