Ba1 Na1 Hf1 Sb1 O6
1.0
   5.0484647750854492    0.0000000000000000    2.9330043792724605
   1.6841253880401421    4.7631210659408652    2.9381392002105722
   0.0000000000000000    0.0000000000000000    5.8369507789611816
Ba Na Hf Sb O
1 1 1 1 6
direct
   0.2008107751607895    0.0463206954300404    0.0623405873775482 Ba
   0.7006697654724120    0.5460938811302185    0.5625355839729309 Na
   0.4506310522556305    0.2963986694812775    0.3124871253967285 Hf
   0.9506676793098450    0.7960228323936464    0.8123810887336731 Sb
   0.1970014423131943    0.0427150875329971    0.5659506916999817 O
   0.7037042379379272    0.0426623001694679    0.5662220120429993 O
   0.7039548158645630    0.5496672391891479    0.0591620802879333 O
   0.7041773200035095    0.0422667264938354    0.0589479058980942 O
   0.1967897564172745    0.5495308637619019    0.0591587983071804 O
   0.1969661563634872    0.5495719909667969    0.5658130049705505 O
