Ba3 Na5 La1 Ga3 O11
1.0
   6.0710310935974130    0.0000000000000000    1.4196640253067017
   0.1432806602108198    6.5262131298682453    0.9796223640441887
   0.0000000000000000    0.0000000000000000    9.5157575607299805
Ba Na La Ga O
3 5 1 3 11
direct
   0.7104074954986572    0.7510754466056823    0.6313886642456055 Ba
   0.6515791416168214    0.3752624690532684    0.0301892831921577 Ba
   0.2066570818424225    0.0461736470460892    0.7167099714279175 Ba
   0.9370616078376770    0.9231792092323303    0.0632668286561966 Na
   0.2429437041282654    0.5463175773620605    0.5346831679344177 Na
   0.2248553931713104    0.4483355283737183    0.8653940558433533 Na
   0.6349587440490723    0.1939182281494140    0.4073757827281952 Na
   0.6115488409996033    0.6792012453079224    0.3114843070507050 Na
   0.1974168717861176    0.0542336776852608    0.3120446801185608 La
   0.0932912379503250    0.5255112051963806    0.2565064132213593 Ga
   0.4788386523723602    0.9390438795089722    0.9742164015769958 Ga
   0.7720606327056885    0.2578271925449371    0.6796325445175171 Ga
   0.9272925257682800    0.1166144385933876    0.5305497050285339 O
   0.2509569823741913    0.1263958662748337    0.9928597211837769 O
   0.7437373399734497    0.0427103787660599    0.8420590162277222 O
   0.3481935262680054    0.4080493748188019    0.2993717193603516 O
   0.9060774445533752    0.3618789911270141    0.2196774929761887 O
   0.9475025534629822    0.4413758814334869    0.7374824285507202 O
   0.4063868522644043    0.7091562747955321    0.9035024642944336 O
   0.5569844245910645    0.9517751336097717    0.1497729569673538 O
   0.9846521615982056    0.7654063701629639    0.3064053952693939 O
   0.5124983191490173    0.3673631548881531    0.6377903819084167 O
   0.4033257663249969    0.8874408006668091    0.4822059571743011 O
