Na1 Fe1 S2 O7
1.0
   4.9293122291564941    0.0000000000000000    0.1218793317675594
   2.1230194014388819    4.4310268973776834    0.0794378742575643
   0.0000000000000000    0.0000000000000000    7.0216364860534668
Na Fe S O
1 1 2 7
direct
   0.4710261821746826    0.2878570258617401    0.9178259968757629 Na
   0.4655536711215973    0.2806342840194702    0.4161567687988281 Fe
   0.8205789327621460    0.6351155638694763    0.1831362992525101 S
   0.1160846725106239    0.9316188097000122    0.6530455946922302 S
   0.1631766110658645    0.5108683109283448    0.2041318714618683 O
   0.2337452620267868    0.0471870489418507    0.4876514077186585 O
   0.6962664723396302    0.9773268103599548    0.2033448666334152 O
   0.7762272953987122    0.0505141690373421    0.6255362033843994 O
   0.7502079606056213    0.5635722875595094    0.9917377829551698 O
   0.2339718937873840    0.5911703705787659    0.6258659958839417 O
   0.6991052627563478    0.5145153999328613    0.3452912569046021 O
