Na6 Cu2 O5
1.0
   5.4996066093444824    0.0000000000000000    1.2518523931503294
   1.0232889167866046    5.7854832251623423    0.6360800266265866
   0.0000000000000000    0.0000000000000000    6.0606226921081543
Na Cu O
6 2 5
direct
   0.5859292745590210    0.0901823267340660    0.0888301506638527 Na
   0.5567085146903992    0.4316784143447876    0.7203488349914551 Na
   0.3118281364440918    0.9682495594024659    0.5365079045295715 Na
   0.9944171905517578    0.7336865663528442    0.9495663046836853 Na
   0.9490285515785217    0.4135663509368896    0.3767435252666473 Na
   0.4113811850547791    0.5485763549804688    0.2872675061225891 Na
   0.0823454484343529    0.2432612180709839    0.9071884751319885 Cu
   0.8174110054969788    0.9323830008506775    0.5099719762802124 Cu
   0.0713176056742668    0.6935775876045227    0.5521234273910522 O
   0.6123929619789124    0.2050615400075912    0.4320244491100311 O
   0.9025587439537048    0.1068440973758698    0.7542682886123657 O
   0.2547118663787842    0.3898910284042358    0.0392996817827225 O
   0.6853750348091125    0.7603555917739869    0.3240304887294769 O
