Generated by VASPKIT code
 1.000000
    6.5198417477098776   -0.5703442816834988   -0.1503193644012410
   -2.1264479154752123    5.7235133137655572   -0.8441928703343765
    0.0667170663614722    0.3494711659989584    5.9200680032412993
   Sn   O 
     2     7
Direct
    0.9438143895070875    0.9309468019852307    0.2215881267290087    Sn001
    0.3836783733059547    0.3788901867979716    0.4595783264763302    Sn002
    0.6639714200395914    0.6546123414911204    0.3407412510059483     O001
    0.5576658284376445    0.2291646491602178    0.6123194087000735     O002
    0.7691614343704359    0.0804056238471178    0.0694729654060104     O003
    0.2882496934828247    0.6213831760147315    0.6049787459502229     O004
    0.0392260941362072    0.6881341731544020    0.0764225381774212     O005
    0.2735613850706768    0.2080919406593528    0.1388888808159391     O006
    0.0542555735830636    0.1014885206165147    0.5422396063828354     O007
