Na3 Cu1 F7
1.0
   3.7767097949981689    0.0000000000000000    0.0206016059964894
   0.0160829823199093    6.0584827575315847    2.1622991561889635
   0.0000000000000000    0.0000000000000000    6.4362344741821289
Na Cu F
3 1 7
direct
   0.9869014024734496    0.3559145331382752    0.6672791242599487 Na
   0.4867107570171356    0.3579574227333069    0.1651731431484222 Na
   0.9871031045913695    0.8563592433929443    0.1668086051940919 Na
   0.4870690703392028    0.8566672801971436    0.6666666666666666 Cu
   0.9872654080390929    0.2231740802526474    0.0341299027204514 F
   0.4868050813674926    0.1612655073404312    0.6130488514900208 F
   0.9861574769020079    0.4892307519912720    0.3030730187892914 F
   0.4860830903053283    0.9166998267173767    0.3606730997562408 F
   0.4864449501037597    0.7996760606765747    0.9719170928001403 F
   0.9869068264961242    0.8579884171485901    0.6669509410858154 F
   0.4867082238197326    0.5522425770759583    0.7219244837760926 F
