Generated by VASPKIT code
 1.000000
    7.4814853170650100    0.1072177699548253    0.7307657983929855
   -3.4710249433313076    6.0120108170665487   -2.1202760347008152
   -0.0115682324114939   -0.1263094163780307   10.7057440245342299
   Zn   Ge   Se
     3     2     9
Direct
    0.9248445328880899    0.8726733065439872    0.6925650658742334    Zn001
    0.6324782201618792    0.0203026046965736    0.0608582451190214    Zn002
    0.0065407718184502    0.7172652479423385    0.0800646553998947    Zn003
    0.9180809366978325    0.0993332791500090    0.4158569716133593    Ge001
    0.2665116282426470    0.5432138000482746    0.7334754056119361    Ge002
    0.6103842821299990    0.8484019616453082    0.8094061127697580    Se001
    0.8914016398025832    0.7781451654252215    0.4552202811778910    Se002
    0.6808125774533850    0.2012606803533480    0.5160208970387127    Se003
    0.6819387615388993    0.3887124805397199    0.0793812449133051    Se004
    0.2590976622310247    0.4297595118676779    0.4928246569550312    Se005
    0.3328927036146463    0.8167478463804024    0.1698085205464789    Se006
    0.0374465431047978    0.6894181548028674    0.8191263857227757    Se007
    0.2142690080425415    0.2407442225778320    0.8035062576887234    Se008
    0.9405265301043179    0.0498138092286724    0.1781880604902612    Se009
