Ni1 B4 P2 O12                           
   1.00000000000000     
     4.4356209981113031   -0.7846430381312057   -0.0110753904077843
    -3.8977591075649349    9.0440537862723662   -1.6487801017428692
     0.3613983916615797   -0.2541056116388667    6.5728206494660446
   Ni   B    P    O 
     1     4     2    12
Direct
  0.3136677813314980  0.0194256735328258  0.9896029925152054
  0.9705680986181132  0.4157371175150906  0.4887644699777142
  0.7025339068454666  0.4424081930629074  0.8284669980577498
  0.4737588883271219  0.6745260098260107  0.3897461349298514
  0.2843805149572642  0.5227089878085440  0.0089185201637143
  0.7677685983182123  0.9726693997409472  0.6656559037462801
  0.8971710141406901  0.1233691560468624  0.2996843537805732
  0.4109103308073668  0.9062791528265676  0.7573945820163343
  0.0976657870817901  0.0665069584340486  0.8115451032943924
  0.2101999385930726  0.5799718012836267  0.5040516226748735
  0.2306924775950309  0.1309706047865854  0.2307795216370469
  0.7240677737268192  0.3689167013943103  0.6298113706925701
  0.4050526930148139  0.4503466540262805  0.8546715600678271
  0.5637963036716411 -0.0120422416105294  0.1654589903275390
 -0.0158042734621606  0.3036354607290537  0.3260363249147809
  0.7479286393443910  0.8303092514292636  0.4916724913493444
  0.8340698925495034  0.1037659923952530  0.5355929702223716
  0.5028354620865071  0.6268846083966669  0.1846154900107133
  0.9555608300718429  0.5009483041859409 -0.0115379079310231
 
  0.00000000E+00  0.00000000E+00  0.00000000E+00
  0.00000000E+00  0.00000000E+00  0.00000000E+00
  0.00000000E+00  0.00000000E+00  0.00000000E+00
  0.00000000E+00  0.00000000E+00  0.00000000E+00
  0.00000000E+00  0.00000000E+00  0.00000000E+00
  0.00000000E+00  0.00000000E+00  0.00000000E+00
  0.00000000E+00  0.00000000E+00  0.00000000E+00
  0.00000000E+00  0.00000000E+00  0.00000000E+00
  0.00000000E+00  0.00000000E+00  0.00000000E+00
  0.00000000E+00  0.00000000E+00  0.00000000E+00
  0.00000000E+00  0.00000000E+00  0.00000000E+00
  0.00000000E+00  0.00000000E+00  0.00000000E+00
  0.00000000E+00  0.00000000E+00  0.00000000E+00
  0.00000000E+00  0.00000000E+00  0.00000000E+00
  0.00000000E+00  0.00000000E+00  0.00000000E+00
  0.00000000E+00  0.00000000E+00  0.00000000E+00
  0.00000000E+00  0.00000000E+00  0.00000000E+00
  0.00000000E+00  0.00000000E+00  0.00000000E+00
  0.00000000E+00  0.00000000E+00  0.00000000E+00
