Na2 In1 Au1 I8                          
   1.00000000000000     
     8.3485270657632515    0.8168797805641106   -0.0661214696484276
     0.8906586475043325    7.9226712432272004   -0.1120349559416390
     0.0346752835449678   -0.1386788685291395    9.0508376150078060
   Na   In   Au   I 
     2     1     1     8
Direct
  0.1052390740669269  0.7722928043616429  0.7978306619063266
  0.6060706114247004  0.2747384498146032  0.5505649310688153
  0.1183076366034817  0.7855344074443275  0.2690312028503626
  0.6054758943934427  0.7739173316993786  0.0489918129366097
  0.2842824419995922  0.5359376593567726  0.0731214465999315
  0.9276491606431616  0.0166029809363596  0.0646430065302613
  0.2438263966405027  0.5113443084626383  0.5309385042669679
  0.4297466860748595 -0.0138623365132160  0.2609986491065742
  0.7838470301844555  0.5668669316647265  0.2496619251857880
  0.7604352217540754  0.5544020358729338  0.8328018814041697
  0.9724908733953420  0.0368908430452266  0.5211351910811346
  0.4592851641684893 -0.0112591142595505  0.8407017588738767
 
  0.00000000E+00  0.00000000E+00  0.00000000E+00
  0.00000000E+00  0.00000000E+00  0.00000000E+00
  0.00000000E+00  0.00000000E+00  0.00000000E+00
  0.00000000E+00  0.00000000E+00  0.00000000E+00
  0.00000000E+00  0.00000000E+00  0.00000000E+00
  0.00000000E+00  0.00000000E+00  0.00000000E+00
  0.00000000E+00  0.00000000E+00  0.00000000E+00
  0.00000000E+00  0.00000000E+00  0.00000000E+00
  0.00000000E+00  0.00000000E+00  0.00000000E+00
  0.00000000E+00  0.00000000E+00  0.00000000E+00
  0.00000000E+00  0.00000000E+00  0.00000000E+00
  0.00000000E+00  0.00000000E+00  0.00000000E+00
