Na2 Ir1 Cl6
1.0
   6.1911239624023438    0.0000000000000000    3.5534815788269039
   2.0459141220611348    5.8414601237921575    3.5192880630493160
   0.0000000000000000    0.0000000000000000    7.1414914131164551
Na Ir Cl
2 1 6
direct
   0.7635142803192139    0.5366802215576172    0.8323720097541810 Na
   0.2637084722518921    0.0369952172040939    0.3315114080905915 Na
   0.0139362849295139    0.7863857746124268    0.0819304585456848 Ir
   0.2513419091701508    0.5487713813781738    0.8447348475456239 Cl
   0.2495774179697036    0.5511094331741333    0.3185137808322906 Cl
   0.7775470614433289    0.5494857430458069    0.3175086677074432 Cl
   0.2505748867988586    0.0226837284862995    0.8449304103851319 Cl
   0.7774078845977783    0.0240108110010624    0.3181803822517395 Cl
   0.7776223421096802    0.0214020833373070    0.8454694747924806 Cl
