Na3 Fe2 Cl9
1.0
   6.8851823806762695    0.0000000000000000    0.7114136219024639
   2.3177654881785377    6.4311274110644359    0.8965276479721076
   0.0000000000000000    0.0000000000000000    7.8956837654113770
Na Fe Cl
3 2 9
direct
   0.4280395805835724    0.6075456142425537    0.2526289820671082 Na
   0.0066584446467459    0.2924172878265381    0.5584259629249573 Na
   0.3894480466842652    0.4338192045688629    0.7605013251304626 Na
   0.9178419709205629    0.0440368913114071    0.0002429659944028 Fe
   0.7600681185722352    0.9120593070983888    0.4477961957454681 Fe
   0.6799076199531556    0.8718593120574951    0.1596381366252899 Cl
   0.6636186838150026    0.3845380246639252    0.9978119730949402 Cl
   0.0839635878801346    0.6496794819831849    0.4956973791122437 Cl
   0.9774289131164552    0.1046330630779266    0.2910420000553131 Cl
   0.4472462832927704    0.2045530378818512    0.4433575570583344 Cl
   0.1723231077194214    0.1773664206266403    0.8745121955871582 Cl
   0.7873082160949708    0.0322958640754223    0.7209121584892272 Cl
   0.6032581329345703    0.6591809988021851    0.5504773855209351 Cl
   0.1606679111719132    0.7036716938018799    0.9974969625473022 Cl
