Mg23 Cu1 O24
1.0
   5.1420464515686035    0.0000000000000000    0.8735319972038273
  -1.7796222490354985    5.7742628896366819   -0.0088555905967954
   0.0000000000000000    0.0000000000000000   15.6394624710083008
Mg Cu O
23 1 24
direct
   0.5149724483489990    0.4104740321636200    0.9589005112648010 Mg
   0.5140047073364258    0.9106398224830629    0.2908149063587189 Mg
   0.0128853581845760    0.5379537343978882    0.7084401249885559 Mg
   0.0136515712365508    0.5360797047615051    0.0409347787499428 Mg
   0.0128717906773090    0.0350744277238846    0.7081171274185181 Mg
   0.5138378739356995    0.6598145365715027    0.1239969730377197 Mg
   0.0121395662426949    0.0357292331755161    0.3747833073139191 Mg
   0.0120194274932146    0.5367136001586914    0.3733849227428436 Mg
   0.5135601162910461    0.9103816747665405    0.9581786394119263 Mg
   0.0137124629691243    0.2870884239673615    0.2070219665765762 Mg
   0.5138268470764160    0.4110105633735657    0.2906602323055267 Mg
   0.5112501382827759    0.6608548760414124    0.4572635591030121 Mg
   0.0120131401345134    0.2855200171470642    0.5398662686347961 Mg
   0.0147599941119552    0.0359641239047050    0.0409360155463219 Mg
   0.5111795663833618    0.4120442867279053    0.6240345239639282 Mg
   0.0143460277467966    0.7854469418525696    0.2072016149759293 Mg
   0.0119670061394572    0.7839239239692688    0.8741427659988403 Mg
   0.5109344720840454    0.9104718565940857    0.6241886019706726 Mg
   0.0103959813714027    0.7857756614685060    0.5403328537940979 Mg
   0.5138735771179199    0.1612305343151093    0.1230268180370331 Mg
   0.0129745341837406    0.2879424989223480    0.8742566704750061 Mg
   0.5125084519386292    0.6619759202003479    0.7895156741142273 Mg
   0.5108968615531921    0.1615694314241409    0.4584529101848602 Mg
   0.5133340358734131    0.1600830256938934    0.7904493212699890 Cu
   0.2684661149978638    0.0989666506648064    0.9132315516471863 O
   0.2599979043006897    0.5969871878623962    0.5836587548255920 O
   0.7616609930992126    0.7240255475044250    0.6660528182983398 O
   0.7621209025382996    0.9736886620521545    0.4994438886642456 O
   0.7585401535034180    0.2225865423679352    0.6690714955329895 O
   0.7638570070266724    0.9735403060913086    0.1651672273874283 O
   0.2618118226528168    0.3486199080944061    0.7492591738700867 O
   0.7658753991127014    0.7244779467582703    0.9987613558769227 O
   0.2646506130695343    0.8482434153556824    0.0819471552968025 O
   0.2636887133121490    0.5990394949913025    0.2492294907569886 O
   0.7638238668441772    0.4736512899398804    0.8317186832427979 O
   0.7637290358543396    0.9726458191871644    0.8323628902435303 O
   0.2617385387420654    0.8479118347167969    0.7502787709236145 O
   0.2641342580318451    0.3479368984699249    0.0811413526535034 O
   0.7613265514373779    0.4728961586952209    0.4990349113941193 O
   0.7647365331649780    0.4728396832942963    0.1655915975570679 O
   0.2632620334625244    0.0978487282991409    0.2492045611143112 O
   0.2617517411708832    0.8483652472496033    0.4163879156112671 O
   0.7611541152000427    0.2231667637825012    0.3320378065109253 O
   0.2634191811084747    0.5986418724060059    0.9153295159339905 O
   0.2616430521011353    0.3490012586116791    0.4151155054569244 O
   0.7652332186698914    0.2227969914674759    0.9985697865486145 O
   0.7624390721321107    0.7228100299835206    0.3326612114906311 O
   0.2606018781661987    0.0996432900428772    0.5825541615486145 O
