Na1 Fe1 As1 O4
1.0
   4.2494702339172372    0.0000000000000000    0.0094084711745368
   0.0090037020456960    4.0411844088859885    1.3713634014129632
   0.0000000000000000    0.0000000000000000    5.9687509536743164
Na Fe As O
1 1 1 4
direct
   0.0944926366209984    0.0566388964653015    0.2880206704139709 Na
   0.3377943933010101    0.0541549138724804    0.7891432642936707 Fe
   0.8272103667259216    0.5543742179870605    0.7891185283660889 As
   0.5968587398529053    0.2335669547319412    0.9850887060165405 O
   0.5999994277954102    0.8747199773788452    0.5919237732887268 O
   0.0663756951689720    0.4059383869171143    0.6001003384590149 O
   0.0633558854460716    0.7009835839271545    0.9768221378326416 O
