Na5 Cu1 Br6                             
   1.00000000000000     
     6.0426435625491264   -0.0313770205598800   -0.0299935600522166
    -0.0241038679084692    5.7195068692192192   -1.9249448782858884
    -0.0394810535214975    0.1516800263320985    9.5352001536264694
   Na   Cu   Br
     5     1     6
Direct
  0.3709822859510550  0.3869093573609448  0.2918732548944812
  0.3655485596925112  0.0452245541617825  0.6286919164027917
  0.3578046677238678  0.7202392840549053  0.9601876744679451
  0.8599864697943295  0.8733942604035003  0.2907016059516870
  0.8645281119917823  0.2177629374078544  0.9524244696878664
  0.0003750394661210  0.3683579746303549  0.5408307236637880
  0.3615879925286533  0.8854345031233722  0.2963118439600985
  0.3465932827656018  0.5490461967556042  0.6258645831767864
  0.8592762849201274  0.0604809471757703  0.6222549633776209
  0.8597503957426245  0.7273040672495124  0.9722339921949311
  0.8649428442261622  0.3835791230378938  0.3028254892800116
  0.3617223432428189  0.2200511832998897  0.9605325661901307
 
  0.00000000E+00  0.00000000E+00  0.00000000E+00
  0.00000000E+00  0.00000000E+00  0.00000000E+00
  0.00000000E+00  0.00000000E+00  0.00000000E+00
  0.00000000E+00  0.00000000E+00  0.00000000E+00
  0.00000000E+00  0.00000000E+00  0.00000000E+00
  0.00000000E+00  0.00000000E+00  0.00000000E+00
  0.00000000E+00  0.00000000E+00  0.00000000E+00
  0.00000000E+00  0.00000000E+00  0.00000000E+00
  0.00000000E+00  0.00000000E+00  0.00000000E+00
  0.00000000E+00  0.00000000E+00  0.00000000E+00
  0.00000000E+00  0.00000000E+00  0.00000000E+00
  0.00000000E+00  0.00000000E+00  0.00000000E+00
