Generated by VASPKIT code
 1.000000
    9.1553497314453125    0.0000000000000000    0.0317999273538586
   -4.6434291149613518    6.4812449022425360   -4.5187964439392099
    0.0000000000000000    0.0000000000000000    9.2346601486206055
   Zr   Ta   In   Si   S    O 
     1     1     2     4     2    24
Direct
    0.9385260343551635    0.5843868255615234    0.2013448476791382    Zr001
    0.7206975221633911    0.1570653319358825    0.5791370272636414    Ta001
    0.4402290582656860    0.5599396824836731    0.6899285912513733    In001
    0.2237115949392319    0.1675657331943512    0.0853517428040504    In002
    0.6161845922470093    0.6578723788261414    0.3838759660720825    Si001
    0.8288856744766235    0.6620607376098632    0.8917915225028992    Si002
    0.1165226325392723    0.3596129119396210    0.8826057314872742    Si003
    0.3303102850914001    0.0705668479204178    0.3878241777420044    Si004
    0.5385408401489258    0.0738615617156029    0.8843407630920410     S001
    0.0244772937148809    0.3669235408306122    0.3987350165843964     S002
    0.5810515880584717    0.0701943412423134    0.7259587645530701     O001
    0.1614409387111664    0.8655482530593872    0.3702641725540161     O002
    0.6599847078323364    0.8764936327934265    0.4141178429126739     O003
    0.5845329761505126    0.6643264293670653    0.5572622418403625     O004
    0.3288944363594055    0.2501745522022247    0.5586408972740173     O005
    0.6547152996063231    0.6670461893081664    0.8891450166702271     O006
    0.9857457280158995    0.4904262125492096    0.3723019063472748     O007
    0.4510494470596313    0.4680154621601105    0.1998358070850372     O008
    0.0492616519331932    0.2288466244935989    0.2444832772016525     O009
    0.2951172292232513    0.5364379286766052    0.8760778307914734     O010
    0.0666336342692375    0.4820564091205596    0.0483530871570110     O011
    0.9419388175010680    0.2270124703645706    0.7049251198768616     O012
    0.8570651412010193    0.2169666886329651    0.4133504331111908     O013
    0.8669643402099609    0.6675724983215332    0.0681235566735267     O014
    0.1758214235305786    0.5017820000648499    0.5604540705680847     O015
    0.0081265401095151    0.8397384881973265    0.8918818831443787     O016
    0.8064503073692322    0.6802861690521240    0.3739959895610809     O017
    0.6878703832626343    0.2603335976600647    0.0441279932856559     O018
    0.3736222088336945    0.0686023831367493    0.8806968927383423     O019
    0.3026838600635529    0.0609397627413273    0.2075301408767700     O020
    0.1468892544507980    0.2002286314964294    0.8863419294357300     O021
    0.5029931068420409    0.8924424052238463    0.8734763860702515     O022
    0.7842326164245605    0.4346077740192413    0.7279721498489380     O023
    0.5104750394821167    0.0737774074077606    0.4237200021743774     O024
