Na1 Cd1 Ni2 Pd1 O6                      
   1.00000000000000     
     3.2434752283097055   -0.0146652061186343   -0.2541436866230551
     0.8263209242886801    5.3345431886950454    1.8811811697461625
     0.0384975184349552   -0.0560468896619623    7.5704088918947505
   Na   Cd   Ni   Pd   O 
     1     1     2     1     6
Direct
  0.4257441177984169  0.6075074172130502  0.2760756059166642
  0.7633655785806883  0.6480622984301653  0.8497098549410887
  0.8411287943721156  0.0955987988301266  0.4014955661688554
  0.3696352982023464  0.1732553488175567  0.6813180623609687
  0.1159728742750988  0.1236246177387845  0.0507200479319670
  0.7954188784654993  0.3008980932991820  0.5500526489403070
  0.3333561149629298  0.3729493919715247  0.8290015191751757
  0.9843298981358719  0.3537230706338969  0.1953260402906831
  0.8340978468969529  0.9085717738134191  0.2532646607095934
  0.2168012805138036  0.9001932505981499  0.8922651511126048
  0.4332814220738878  0.9532082662489006  0.5459091051114029
 
  0.00000000E+00  0.00000000E+00  0.00000000E+00
  0.00000000E+00  0.00000000E+00  0.00000000E+00
  0.00000000E+00  0.00000000E+00  0.00000000E+00
  0.00000000E+00  0.00000000E+00  0.00000000E+00
  0.00000000E+00  0.00000000E+00  0.00000000E+00
  0.00000000E+00  0.00000000E+00  0.00000000E+00
  0.00000000E+00  0.00000000E+00  0.00000000E+00
  0.00000000E+00  0.00000000E+00  0.00000000E+00
  0.00000000E+00  0.00000000E+00  0.00000000E+00
  0.00000000E+00  0.00000000E+00  0.00000000E+00
  0.00000000E+00  0.00000000E+00  0.00000000E+00
