Na2 Pd1 F4
1.0
   3.2850785255432129    0.0000000000000000   -0.9392730593681338
  -0.7947550539128652    4.8723634440786965   -2.5070209503173828
   0.0000000000000000    0.0000000000000000    6.2374639511108398
Na Pd F
2 1 4
direct
   0.8199379444122314    0.8260902762413025    0.1572960913181305 Na
   0.1933338791131973    0.1966471970081329    0.8957297801971436 Na
   0.5088895559310913    0.5117384791374205    0.5258842110633850 Pd
   0.6433036327362061    0.8912063241004943    0.7973254919052124 F
   0.3708256781101227    0.1316820532083511    0.2552863061428070 F
   0.6456744074821472    0.4002281725406647    0.7956414818763733 F
   0.3684104084968567    0.6223064661026001    0.2564768195152283 F
