Na7 La2 Si3 Sn2 P3 O24                  
   1.00000000000000     
     8.0901872346276598   -0.1249968694021527    4.6522952774390642
     2.7176139496161942    7.5029293014344356    4.5724129121463877
     0.0113634473044772   -0.0934785156754794    9.2992529476300341
   Na   La   Si   Sn   P    O 
     7     2     3     2     3    24
Direct
  0.1065541521414699  0.8789419050107264  0.4615460294169341
  0.5966429614910898  0.0927108685556733  0.9632570486848763
  0.8408734155947957  0.0523321815316980  0.1994557295550441
  0.6810847841638165  0.7774606848696782  0.5365811243011032
  0.3184420562890267  0.5280643243141885  0.7555293891934066
  0.4626369771671260  0.4514772626322807  0.4078668701762326
  0.0332411108154598  0.6456719994277461  0.1125703420288167
  0.3025819623745371  0.8502351463832828  0.0507189205228952
  0.8809314076698885  0.6463795995204056  0.8468464136787710
  0.0853581948442916  0.5518185268358538  0.4655957003141518
  0.6167185855259983  0.0671317888085021  0.6347827757679391
  0.5896531759583855  0.7585586865416836  0.2740804374425190
  0.3910234356757030  0.1596979773313428  0.3570540791364363
  0.7855561573544000  0.3687604035219251  0.5680645683481196
  0.0744471712682468  0.9831736464125473  0.7485169944475673
  0.5266197651475572  0.4666115466932201  0.9693155585882862
  0.1036669018429736  0.2610923041396878  0.1747043048712798
  0.5761977407108970  0.9429569308774436  0.2815075128862051
  0.8944098788517786  0.1225883512570411  0.7285234690609372
  0.0707420765752243  0.1031603800679131  0.1927992424676538
  0.0929491149735960  0.4119068640834282  0.0013004694267511
  0.1319790514975667  0.5748946759919215  0.6003737736589662
  0.4132339886017861  0.7638367942339652  0.2707739848867364
  0.2271083433067567  0.0213618500704245  0.5723355388335263
  0.0564956422599269  0.7347548333177909  0.2997786828690638
  0.9717387591474104  0.3391829352278302  0.3280186466526861
  0.5865612157741982  0.4026332329913599  0.8140516857875683
  0.7556932687480461  0.7307425991268214  0.0969597834952505
  0.5683284443050907  0.2963410803946805  0.1263252093865634
  0.6315561392928284  0.2601354067556283  0.5834605027603520
  0.2535066071695168  0.3939791528927414  0.3924388757695992
  0.3329554263498061  0.5813750053997905  0.0039492264199175
  0.8008078044346536  0.9022527270956222  0.6186268073584416
  0.0770069728638089  0.8003515838106107  0.7810346712383668
  0.2925477117607624  0.1951078904298258  0.1791506323283132
  0.4813450548167442  0.0169403967120316  0.8360487208805149
  0.9018321500397560  0.4999404017181781  0.5796064559333809
  0.5523357550823053  0.0958494596417410  0.4830388254651583
  0.6198021837033966  0.6051622535654527  0.4596577808720647
  0.0898320138018393  0.9836405477426221  0.9054970385219367
  0.6234266822993672  0.5870473387393256  0.9270973522261537
 
  0.00000000E+00  0.00000000E+00  0.00000000E+00
  0.00000000E+00  0.00000000E+00  0.00000000E+00
  0.00000000E+00  0.00000000E+00  0.00000000E+00
  0.00000000E+00  0.00000000E+00  0.00000000E+00
  0.00000000E+00  0.00000000E+00  0.00000000E+00
  0.00000000E+00  0.00000000E+00  0.00000000E+00
  0.00000000E+00  0.00000000E+00  0.00000000E+00
  0.00000000E+00  0.00000000E+00  0.00000000E+00
  0.00000000E+00  0.00000000E+00  0.00000000E+00
  0.00000000E+00  0.00000000E+00  0.00000000E+00
  0.00000000E+00  0.00000000E+00  0.00000000E+00
  0.00000000E+00  0.00000000E+00  0.00000000E+00
  0.00000000E+00  0.00000000E+00  0.00000000E+00
  0.00000000E+00  0.00000000E+00  0.00000000E+00
  0.00000000E+00  0.00000000E+00  0.00000000E+00
  0.00000000E+00  0.00000000E+00  0.00000000E+00
  0.00000000E+00  0.00000000E+00  0.00000000E+00
  0.00000000E+00  0.00000000E+00  0.00000000E+00
  0.00000000E+00  0.00000000E+00  0.00000000E+00
  0.00000000E+00  0.00000000E+00  0.00000000E+00
  0.00000000E+00  0.00000000E+00  0.00000000E+00
  0.00000000E+00  0.00000000E+00  0.00000000E+00
  0.00000000E+00  0.00000000E+00  0.00000000E+00
  0.00000000E+00  0.00000000E+00  0.00000000E+00
  0.00000000E+00  0.00000000E+00  0.00000000E+00
  0.00000000E+00  0.00000000E+00  0.00000000E+00
  0.00000000E+00  0.00000000E+00  0.00000000E+00
  0.00000000E+00  0.00000000E+00  0.00000000E+00
  0.00000000E+00  0.00000000E+00  0.00000000E+00
  0.00000000E+00  0.00000000E+00  0.00000000E+00
  0.00000000E+00  0.00000000E+00  0.00000000E+00
  0.00000000E+00  0.00000000E+00  0.00000000E+00
  0.00000000E+00  0.00000000E+00  0.00000000E+00
  0.00000000E+00  0.00000000E+00  0.00000000E+00
  0.00000000E+00  0.00000000E+00  0.00000000E+00
  0.00000000E+00  0.00000000E+00  0.00000000E+00
  0.00000000E+00  0.00000000E+00  0.00000000E+00
  0.00000000E+00  0.00000000E+00  0.00000000E+00
  0.00000000E+00  0.00000000E+00  0.00000000E+00
  0.00000000E+00  0.00000000E+00  0.00000000E+00
  0.00000000E+00  0.00000000E+00  0.00000000E+00
