Generated by VASPKIT code
 1.000000
    5.3463090238081836   -0.0162526203668480   -1.4562830564524563
   -2.8417621043533163    6.3057589539578336    0.0465453687651321
    0.0111502984376239    0.0477843529630396   10.5808297691119026
   Sc   Cl
     1     8
Direct
    0.0452855152761362    0.6211245581150914    0.0582249864090411    Sc001
    0.6655790710387579    0.4840523189735897    0.4359397191686533    Cl001
    0.4096873630877253    0.7314516105228932    0.6770217275273072    Cl002
    0.5438875979909396    0.6134908617781264    0.0633882747168948    Cl003
    0.0416767690371245    0.1122998879595726    0.5607828506626855    Cl004
    0.1628125546627652    0.9633790988430758    0.9502015976922186    Cl005
    0.9408930186556326    0.2838334183636035    0.1869681867412010    Cl006
    0.2812247860997659    0.8565148169319782    0.2948531568329520    Cl007
    0.8141549557316317    0.3873490540705949    0.8302948277038423    Cl008
