Na8 Y1 Sc1 Nb1 Zn1 Si2 P4 O24
1.0
   9.2383346557617188    0.0000000000000000    0.0036735176108777
   4.7051024276457261    7.9657550781373576   -0.0176993012428287
   0.0000000000000000    0.0000000000000000    7.2502365112304688
Na Y Sc Nb Zn Si P O
8 1 1 1 1 2 4 24
direct
   0.1234416589140892    0.2476971745491028    0.1266199499368668 Na
   0.5104750394821168    0.4864409267902374    0.1483336687088013 Na
   0.8210867643356322    0.5443805456161499    0.6875917911529541 Na
   0.4772245287895203    0.1960333883762360    0.6953717470169067 Na
   0.8337278962135315    0.1865876615047455    0.3966092169284821 Na
   0.1671690046787263    0.5345023870468139    0.9125403761863708 Na
   0.8713765740394592    0.8582152128219604    0.1242849603295326 Na
   0.1609827876091004    0.8635421991348265    0.6755610108375549 Na
   0.1487348377704620    0.5404418110847473    0.3808719515800476 Y
   0.8239867091178895    0.1970347464084625    0.9035134315490723 Sc
   0.4918872416019439    0.8676194548606871    0.4466896951198578 Nb
   0.4902418255805968    0.8719468712806702    0.8582702279090881 Zn
   0.1371772289276123    0.2257257103919983    0.6544145941734314 Si
   0.8411784768104552    0.8696227669715880    0.6535379886627197 Si
   0.7850013971328736    0.5697380900382994    0.1263255327939987 P
   0.5021486878395081    0.1563143730163574    0.1388661861419678 P
   0.4989151060581208    0.5091024041175841    0.6253125071525574 P
   0.1980820447206497    0.8688403367996216    0.1255687922239304 P
   0.2912875115871431    0.8574516177177428    0.9454004168510437 O
   0.1645033955574036    0.3150048255920410    0.8231648206710815 O
   0.6676508784294128    0.1623286753892898    0.1326991468667984 O
   0.9559236764907837    0.5603425502777098    0.1589377075433731 O
   0.6908097863197327    0.6658686399459838    0.9561638832092285 O
   0.5095372200012207    0.0424262732267380    0.3029786348342896 O
   0.5989959239959717    0.4160052537918091    0.8030155301094055 O
   0.0980808958411216    0.3452362418174744    0.4722870588302612 O
   0.3203974962234497    0.5340447425842284    0.6306613087654114 O
   0.0175020359456539    0.0249014459550381    0.1108618378639221 O
   0.3166002035140991    0.0328318551182747    0.6146894097328186 O
   0.6662179827690125    0.6715657711029053    0.2954345643520355 O
   0.7724733352661133    0.0626704692840576    0.7019381523132324 O
   0.4840084910392761    0.6887147426605225    0.6181619763374329 O
   0.5864899754524231    0.4099089205265045    0.4498447775840759 O
   0.3484559059143067    0.3363118469715118    0.1767510324716568 O
   0.8106397986412049    0.3860459923744201    0.1205936968326569 O
   0.4876272082328796    0.0740007832646370    0.9641898274421692 O
   0.2960868775844574    0.8877921104431152    0.2902816534042358 O
   0.9435095787048340    0.7541954517364502    0.8188565969467163 O
   0.6643552780151366    0.8539777994155883    0.6202691197395324 O
   0.9567475914955139    0.8001617789268494    0.4640898406505585 O
   0.1974123418331147    0.7032746672630309    0.1570561975240707 O
   0.9851958155632019    0.1881489604711533    0.7036381959915161 O
