Na3 Li1 Hg1 Br5
1.0
   4.0281639099121094    0.0000000000000000    0.7535945177078253
  -0.2895883737952244    5.5622226509758423    1.5501184463500983
   0.0000000000000000    0.0000000000000000   10.9370021820068359
Na Li Hg Br
3 1 1 5
direct
   0.9854626655578613    0.8798077106475830    0.7385942935943604 Na
   0.3883610963821411    0.2818472087383270    0.9354270696640015 Na
   0.5887685418128967    0.4840634465217590    0.5292900204658508 Na
   0.7902623414993286    0.6825323104858398    0.1314223706722260 Li
   0.1896743029356003    0.0838457792997360    0.3301531076431274 Hg
   0.1943943649530411    0.5902734398841858    0.3183438777923584 Br
   0.5830872654914856    0.9867116212844850    0.5259985327720642 Br
   0.9869168996810913    0.3816106319427491    0.7334205508232117 Br
   0.7918233871459961    0.1789398193359375    0.1396992802619934 Br
   0.3818519711494446    0.7749935388565063    0.9497293829917908 Br
