Na7 Bi1 O6                              
   1.00000000000000     
     6.0370138191659724    0.0055124962182208   -0.0897585462688828
    -3.3392012141793361    5.3362323030569172    0.0322664129681626
     0.0165406578026134    0.0075794206022878    6.9154276362661689
   Na   Bi   O 
     7     1     6
Direct
  0.3166971734319824  0.3164395382554235  0.3642833048009230
  0.2782022183882657  0.7226793330782665  0.1006985621349987
  0.8014929956917136  0.7671299462389739  0.6014318749218213
  0.0285067655583339  0.2548152187489270  0.8584741923449050
  0.7022696089823789  0.1734359906159102  0.3586426530902385
  0.2711578886322407  0.7213961912124796  0.6152480711544063
  0.8082481374664707  0.7666573681249365  0.1260385749303679
  0.5270624888069217  0.2905497864414938  0.8614608095020267
  0.2382500867932387  0.0816703203887827  0.0798081599325256
  0.2271620546695527  0.0778704007825916  0.6464946442942677
  0.8227143182270069  0.3983353950844928  0.6423964576552714
  0.5320106753747782  0.7504634507284870  0.3607280436119384
  0.4930185056460686  0.6073759949067550  0.8607319642654395
  0.8335492529271699  0.4008385604143003  0.0764158395167474
 
  0.00000000E+00  0.00000000E+00  0.00000000E+00
  0.00000000E+00  0.00000000E+00  0.00000000E+00
  0.00000000E+00  0.00000000E+00  0.00000000E+00
  0.00000000E+00  0.00000000E+00  0.00000000E+00
  0.00000000E+00  0.00000000E+00  0.00000000E+00
  0.00000000E+00  0.00000000E+00  0.00000000E+00
  0.00000000E+00  0.00000000E+00  0.00000000E+00
  0.00000000E+00  0.00000000E+00  0.00000000E+00
  0.00000000E+00  0.00000000E+00  0.00000000E+00
  0.00000000E+00  0.00000000E+00  0.00000000E+00
  0.00000000E+00  0.00000000E+00  0.00000000E+00
  0.00000000E+00  0.00000000E+00  0.00000000E+00
  0.00000000E+00  0.00000000E+00  0.00000000E+00
  0.00000000E+00  0.00000000E+00  0.00000000E+00
