Generated by VASPKIT code
 1.000000
    3.3287800957033120    0.0004128419163421   -0.0108070021163599
   -1.6580478391203006    4.8461287755375926    2.9667073307614165
    0.0209805828688848    0.0887793778366660    8.0298201480055784
   Sn   O 
     1     4
Direct
    0.3994148953304621    0.9851385064459327    0.6980267767989019    Sn001
    0.2082407070116548    0.6015224867578990    0.9642955699449611     O001
    0.9719210222692058    0.1283934408133464    0.8056327635396712     O002
    0.8279780376109102    0.8419675647449856    0.5901641623065766     O003
    0.5916220485316348    0.3689329324044593    0.4316842067450990     O004
