Generated by VASPKIT code
 1.000000
    7.2574448275521153   -0.3078152575460624    0.6595698556646906
   -1.6032745147762584    7.2726587094970441    0.3565868321319793
    1.0143228574922003   -0.9792180459818729   11.7308942569477797
   Ge   S 
     4    12
Direct
    0.0406836039027861    0.2327486775632428    0.8512039492566769    Ge001
    0.5753753948553419    0.9639851362681315    0.4482929248439158    Ge002
    0.2953011470693097    0.5299166822175126    0.0648110545844481    Ge003
    0.8112981716644396    0.2603355709377140    0.6545921585398469    Ge004
    0.5752743280827677    0.0041453253790170    0.6453799868922694     S001
    0.9988787842864704    0.5132392557057113    0.1587778541016847     S002
    0.4697584188647843    0.1653676632678058    0.3662587656874938     S003
    0.4246469207577347    0.3352241483534520    0.1355567368741523     S004
    0.2823157235371287    0.4811062378561403    0.8671541503500549     S005
    0.4914860220699747    0.8086172197348881    0.0596420019466226     S006
    0.0174076929398974    0.0087045702589012    0.9630026781190985     S007
    0.7651463969496851    0.3274228011121917    0.8477777489688314     S008
    0.3596454807599170    0.6923937903288897    0.4488988634059178     S009
    0.8242448707735434    0.4758005812992933    0.5372765912765278     S010
    0.8717299901523574    0.9538874519166370    0.3638577600428612     S011
    0.0985073207345637    0.1844354869622541    0.6545189657941896     S012
