Na4 Tl1 P3 O11                          
   1.00000000000000     
     5.4557558358818046    0.0646914707037552    1.0928465451613114
    -0.0558776586876083    6.4529438939721295   -1.8343659846238205
     0.0650707590380878   -0.0793029630857564    7.4264522588364139
   Na   Tl   P    O 
     4     1     3    11
Direct
  0.3164181109149959  0.5596581552013207  0.2792873613230968
  0.8138032987416824  0.6799078406991581  0.0051319808859865
  0.9041783520856019  0.8611266050966109  0.6417114533907633
  0.9472124746942169  0.3419861966114290  0.5477842156679877
  0.3350204096181614  0.1808346636433204  0.8791122992286824
  0.3634187371197114  0.6447812588025374  0.7653789443934592
  0.7733006186889743  0.2179335364236289  0.1241541862548448
  0.5013921668283184  0.0322257378663920  0.4379748555745561
  0.6279201584056804  0.3623975895057482  0.0518807794839550
  0.8301954371460339  0.0120924710449109  0.9742444793111142
  0.2215568838031989  0.6209923535379094  0.6039270266254456
  0.6448815222415253  0.1008700348855328  0.6062717269130355
  0.2266737141520834  0.0696611486078058  0.5267423978230518
  0.3141030345634293  0.8687301273101590  0.9158267781067843
  0.5767749839179714  0.2028456612589691  0.3161385753795894
  0.5824567834253886  0.8213688937312834  0.3055032355123128
  0.6379825775091204  0.5977146429805430  0.7050484154995424
  0.2277383425178180  0.5019062480579485  0.8968255259212393
  0.0031421385721498  0.3223967815000964  0.1950824776255506
 
  0.00000000E+00  0.00000000E+00  0.00000000E+00
  0.00000000E+00  0.00000000E+00  0.00000000E+00
  0.00000000E+00  0.00000000E+00  0.00000000E+00
  0.00000000E+00  0.00000000E+00  0.00000000E+00
  0.00000000E+00  0.00000000E+00  0.00000000E+00
  0.00000000E+00  0.00000000E+00  0.00000000E+00
  0.00000000E+00  0.00000000E+00  0.00000000E+00
  0.00000000E+00  0.00000000E+00  0.00000000E+00
  0.00000000E+00  0.00000000E+00  0.00000000E+00
  0.00000000E+00  0.00000000E+00  0.00000000E+00
  0.00000000E+00  0.00000000E+00  0.00000000E+00
  0.00000000E+00  0.00000000E+00  0.00000000E+00
  0.00000000E+00  0.00000000E+00  0.00000000E+00
  0.00000000E+00  0.00000000E+00  0.00000000E+00
  0.00000000E+00  0.00000000E+00  0.00000000E+00
  0.00000000E+00  0.00000000E+00  0.00000000E+00
  0.00000000E+00  0.00000000E+00  0.00000000E+00
  0.00000000E+00  0.00000000E+00  0.00000000E+00
  0.00000000E+00  0.00000000E+00  0.00000000E+00
