Generated by VASPKIT code
 1.000000
    4.5702892195748950    0.0024730999774251   -0.0096781820015387
   -0.0162637270837616    8.7318140708823151   -0.3321513963758073
   -0.0003690423967602   -0.0465361537223495    7.7998081749646708
   Tl   As
     2     4
Direct
    0.9018135816696111    0.9307432244873656    0.9567330732136511    Tl001
    0.4020825630338832    0.7632363364146405    0.2634339945836902    Tl002
    0.4017956915031372    0.7447634700738471    0.8868131959066342    As001
    0.4000404064684744    0.4712285268069121    0.3760429308164114    As002
    0.9036552142109896    0.9487989839070166    0.3337037219571446    As003
    0.9013713430966135    0.2229415193438383    0.8428300566432432    As004
