Generated by VASPKIT code
 1.000000
    5.6271612328140170    0.0108635973961814    3.2414505795542663
    1.8775625850717363    5.3149818194898790    3.2267370196320608
    0.0042547961692922    0.0212378630177932    6.4920753974214760
   Os   O 
     1     6
Direct
    0.4894550073570623    0.4940905225200239    0.9177213067074362    Os001
    0.7081385851780233    0.2753685238895113    0.1370566762546080     O001
    0.7085693600864074    0.7131618578974291    0.6986867240161774     O002
    0.2703874803049132    0.2748844059970789    0.1367132118781010     O003
    0.2700950867511684    0.7133592070285545    0.1371527434616494     O004
    0.2702524898318620    0.7128608207993025    0.6989582794796118     O005
    0.7086790402424614    0.2746458426646504    0.6984559419826502     O006
