Sr1 Zr1 W1 O6                           
   1.00000000000000     
     4.9285418734169522   -0.0005694382188678    2.8361992626298003
     1.6410178346210951    4.6470831187735753    2.8385460592844121
     0.0025394478804868   -0.0007462498398779    5.6834572450894214
   Sr   Zr   W    O 
     1     1     1     6
Direct
  0.1922156683052470  0.1066629515912117  0.2411547332620763
  0.4421644824666572  0.3568777358224874  0.4911784596692469
  0.9421045643126907  0.8568295546981983  0.9912529754957012
  0.1826461449148475  0.0970399510405299  0.7512122389871041
  0.7026109449862560  0.0966044410129613  0.7511317240038499
  0.1828373015031015  0.6169104356155369  0.2313326045769638
  0.1828282206645691  0.6170140812299894  0.7508441507569659
  0.7026931081990938  0.0966735728753785  0.2315211429836496
  0.7028008845089488  0.6165597003705082  0.2311784079952314
 
  0.00000000E+00  0.00000000E+00  0.00000000E+00
  0.00000000E+00  0.00000000E+00  0.00000000E+00
  0.00000000E+00  0.00000000E+00  0.00000000E+00
  0.00000000E+00  0.00000000E+00  0.00000000E+00
  0.00000000E+00  0.00000000E+00  0.00000000E+00
  0.00000000E+00  0.00000000E+00  0.00000000E+00
  0.00000000E+00  0.00000000E+00  0.00000000E+00
  0.00000000E+00  0.00000000E+00  0.00000000E+00
  0.00000000E+00  0.00000000E+00  0.00000000E+00
