Na7 Cd1 Cl8
1.0
   6.8232774734497070    0.0000000000000000    3.9215073585510249
   2.2540253789948248    6.4499326069396217    3.9138691425323486
   0.0000000000000000    0.0000000000000000    7.8657398223876953
Na Cd Cl
7 1 8
direct
   0.9301643371582031    0.4074936509132386    0.2507949471473694 Na
   0.4320998787879944    0.4085617065429688    0.2512447237968445 Na
   0.4307227432727813    0.9070093035697938    0.7501055002212523 Na
   0.9313722848892212    0.4086723923683167    0.7503961920738218 Na
   0.9307827949523926    0.9080844521522522    0.2498717159032821 Na
   0.9313150048255920    0.9085748195648194    0.7505614757537840 Na
   0.4306980371475221    0.9083284139633179    0.2497747540473937 Na
   0.4312331378459930    0.4084869921207429    0.7495542764663695 Cd
   0.6733624935150146    0.1664317995309830    0.5083738565444945 Cl
   0.1893403232097626    0.1660387068986893    0.9924770593643187 Cl
   0.1891966462135315    0.6506062746047975    0.5074108242988585 Cl
   0.6813113093376160    0.6587955951690674    0.0003474297700450 Cl
   0.1816955357789993    0.1584206819534302    0.5000542402267456 Cl
   0.6744776368141174    0.6512892246246339    0.5074720978736876 Cl
   0.6745456457138062    0.1650138199329376    0.9934137463569640 Cl
   0.1890937387943268    0.6507320404052734    0.9929240345954894 Cl
