Na2 Al1 Fe1 Si3 B1 H1 O12
1.0
   4.7226576805114746    0.0000000000000000   -0.7869423031806948
  -2.0080346815271755    7.1714481481170269    2.9492874145507821
   0.0000000000000000    0.0000000000000000    8.0930042266845703
Na Al Fe Si B H O
2 1 1 3 1 1 12
direct
   0.0343489609658718    0.8587157726287841    0.1049785688519478 Na
   0.0396266132593155    0.5180975794792175    0.9197167754173280 Na
   0.6683381795883179    0.0593319125473499    0.2693498730659485 Al
   0.6183077692985535    0.7694862484931946    0.6750931739807129 Fe
   0.2222186475992203    0.3315615952014923    0.7096311450004578 Si
   0.9193605780601501    0.4559402465820312    0.3099171817302704 Si
   0.6344499588012695    0.0809957012534141    0.8706203699111938 Si
   0.1352628022432327    0.8960396051406859    0.4720701873302460 B
   0.5017271041870117    0.5781427025794983    0.2594189643859863 H
   0.4235048294067383    0.5097310543060303    0.7641423344612122 O
   0.1852857321500778    0.5821703672409058    0.1787126511335373 O
   0.9964658021926880    0.9910535216331481    0.3217896223068238 O
   0.7159558534622192    0.5853683352470397    0.3123637735843659 O
   0.4021132588386536    0.1833582967519760    0.7268000245094299 O
   0.5250070095062256    0.0273115728050470    0.0678538978099823 O
   0.0116407126188278    0.7857635021209716    0.6331741809844971 O
   0.4290492832660675    0.9067614078521727    0.4530143737792969 O
   0.0558125600218773    0.3753618001937866    0.5128058791160583 O
   0.9625709652900696    0.2304397970438003    0.8560032248497009 O
   0.6635546684265137    0.8976245522499084    0.8408002257347107 O
   0.7242339253425598    0.2880752980709076    0.2422363013029099 O
