Na1 Ag1 Bi1 F6                          
   1.00000000000000     
     3.7654564980048466    0.1326707981139095    1.2172553573199274
    -0.4703681196046890    5.0268338334737939    2.3671941214234091
     0.0598271463064478   -0.0114244358013340    7.0131228576470725
   Na   Ag   Bi   F 
     1     1     1     6
Direct
  0.4696073310819284  0.8695990330393333  0.7155572073064611
  0.1290955986191118  0.5280433552192707  0.3962911166599097
  0.8091362525470174  0.2091828276905456  0.0362177029517027
  0.2769884349916179  0.4415821050972145  0.0562311794355156
  0.6902449843309143  0.7671182619947197  0.3863801002831113
  0.5781416741022207  0.2987132911860872  0.3859543254963994
  0.3234272452047063  0.9574926451560613  0.0558435602176011
  0.9633781216394955  0.5969607019544093  0.7405273346888911
  0.9522997804432691  0.1180316978751772  0.7400276927835305
 
  0.00000000E+00  0.00000000E+00  0.00000000E+00
  0.00000000E+00  0.00000000E+00  0.00000000E+00
  0.00000000E+00  0.00000000E+00  0.00000000E+00
  0.00000000E+00  0.00000000E+00  0.00000000E+00
  0.00000000E+00  0.00000000E+00  0.00000000E+00
  0.00000000E+00  0.00000000E+00  0.00000000E+00
  0.00000000E+00  0.00000000E+00  0.00000000E+00
  0.00000000E+00  0.00000000E+00  0.00000000E+00
  0.00000000E+00  0.00000000E+00  0.00000000E+00
