Generated by VASPKIT code
 1.000000
    5.3865527388998489   -0.0875445638666009    1.8186064684066319
    1.6770848439748616    5.4700150288359772    0.5762870320819603
   -0.0290180956575340   -0.0591992408371170    9.0033565972377865
   Re   O 
     2    10
Direct
    0.4980800928889147    0.0964507207222307    0.1733657186091586    Re001
    0.2387147019714141    0.5956242977116254    0.6912911016779487    Re002
    0.3393808899774957    0.9025652805750616    0.1119254944099517     O001
    0.0263045351313230    0.3903215869947241    0.6923937617559268     O002
    0.7191303313384333    0.2900321000587611    0.1125834631228467     O003
    0.7162660988277625    0.8471669959286856    0.2532698118335035     O004
    0.3556704434857543    0.3970364064813873    0.8480736052394825     O005
    0.1122794615957844    0.7997887744961223    0.5317888257317280     O006
    0.4503142464803668    0.8008461243276764    0.6922260075085918     O007
    0.1998377224552695    0.3454224468277288    0.2533025716588210     O008
    0.5254370882441846    0.3913996987957227    0.5319043796674880     O009
    0.9649032036045183    0.7942415335897024    0.8480977660549227     O010
