Generated by VASPKIT code
 1.000000
    5.4813429021060385   -0.0483633231557311    0.0366687534639737
    2.1264679509614437    4.9244477556846142   -0.2634544458803416
    0.0026402061978061   -0.0019598148819800    6.7708005407595602
   Li   Mo   H    O    F 
     2     1     2     2     6
Direct
    0.3458172447843460    0.8892265264556204    0.0376600466876182    Li001
    0.0517220436283675    0.5874641743123225    0.0109686599988684    Li002
    0.6816957200892483    0.2349510987315178    0.2512087548704848    Mo001
    0.4497781347741066    0.8455158382519726    0.6488486098559516     H001
    0.2599717384695892    0.1467726003720856    0.7364728026773336     H002
    0.4854107624089764    0.0517216113515364    0.2397713911039047     O001
    0.4270330623429195    0.9828230878921552    0.7611367040883958     O002
    0.9150187200881277    0.4628488687568072    0.2225991970791578     F001
    0.0094499058386328    0.4470995293486247    0.7700204953632669     F002
    0.4458208696892028    0.5044487852059008    0.0384144438621543     F003
    0.4868186906857686    0.5014560870511249    0.4839837227865845     F004
    0.9576248768973108    0.9789458314317270    0.0314707414822484     F005
    0.9245371528979839    0.0324808286549643    0.4644722282106005     F006
