Na1 Cd1 F3
1.0
   3.7042036056518559    0.0000000000000000   -0.0052977465093140
   1.8404175505773925    3.2617994523176641    0.0176231544464829
   0.0000000000000000    0.0000000000000000    5.6722207069396973
Na Cd F
1 1 3
direct
   0.3886242210865021    0.9640344977378846    0.2846034169197083 Na
   0.7201656699180603    0.3054855465888977    0.7808471918106079 Cd
   0.0553050562739372    0.6345625519752504    0.5475784540176392 F
   0.3882954120635985    0.9663345217704774    0.8602482676506042 F
   0.7206987738609314    0.3029529154300690    0.1777258217334747 F
