Na5 Ga1 O4
1.0
   4.9000630378723145    0.0000000000000000   -2.4830858707427974
  -1.2584498416256491    4.7466752277955928   -2.4989171028137216
   0.0000000000000000    0.0000000000000000    6.2261977195739746
Na Ga O
5 1 4
direct
   0.2327335178852081    0.5204262137413025    0.2009507417678833 Na
   0.2881655991077423    0.0686636790633202    0.3018697500228882 Na
   0.9960379600524902    0.7763185501098634    0.7184579372406006 Na
   0.8352862596511841    0.1151684820652008    0.3979826569557190 Na
   0.5741103291511536    0.3615397810935975    0.8801351785659790 Na
   0.5338293910026550    0.8199624419212341    0.7981423735618591 Ga
   0.8660807609558105    0.7561055421829225    0.0266935564577579 O
   0.4305016398429871    0.1132681444287300    0.0289373695850372 O
   0.6008199453353882    0.9252982735633850    0.5729307532310485 O
   0.2406737804412842    0.4855425655841828    0.5708636641502380 O
