Generated by VASPKIT code
 1.000000
    5.4506607564956742    0.1821450351804615    1.7557946620534799
    0.8948326334684226    5.2278013425926497   -2.1789051216838913
    0.1254005198997934    0.5501971056202548    7.5529467173039686
   Fe   O 
     4     7
Direct
    0.0291452564253305    0.0487799909822257    0.4477021196392883    Fe001
    0.7872159120365865    0.9775911892028901    0.7253437605953081    Fe002
    0.3697011262833314    0.9711714309646737    0.5871691199176183    Fe003
    0.8323531399461643    0.5515031117107938    0.2851259175195651    Fe004
    0.9201671309472843    0.2717954448539928    0.3238498697046239     O001
    0.6367265383567471    0.7803564715881706    0.8822890122037776     O002
    0.4885858001618004    0.1729291136036863    0.7789242958988183     O003
    0.5278561764650149    0.7069163090017199    0.3525105831095061     O004
    0.0898095614734373    0.8903890132301981    0.7474369158175733     O005
    0.2589738351796171    0.2257796609887919    0.5156081638499259     O006
    0.0436100844550893    0.7614986349489712    0.2330046779762753     O007
