Generated by VASPKIT code
 1.000000
    4.9955222344549322   -0.0003106683283708    2.8883913650024273
    1.6631876297782675    4.7107988656656579    2.8887328232622216
   -0.0026328204890332   -0.0023432798366310    5.7699971694041103
   Sr   Zr   Nb   O 
     1     1     1     6
Direct
    0.9183740511019204    0.7065888170693524    0.6602989398187534    Sr001
    0.1682674179126839    0.9565589070076438    0.9100491776433534    Zr001
    0.6682093084011592    0.4566190019609226    0.4100709502031675    Nb001
    0.4238489039586720    0.7005522465417876    0.6543225249420437     O001
    0.9120730069889117    0.7008159503101650    0.1660417935302671     O002
    0.4241540612359795    0.2128353472508744    0.6540119963920934     O003
    0.4240963833767074    0.7012118490021452    0.1661102700944417     O004
    0.9121126415606364    0.2130971568971030    0.6539631364716652     O005
    0.9119573426825400    0.2129165899158898    0.1659678807416440     O006
