Na8 Cd1 Cu1 Ag5 S9
1.0
   4.1253256797790527    0.0000000000000000    0.0441203042864787
   0.0493689608498082    9.6861620675503719    0.4604921638965606
   0.0000000000000000    0.0000000000000000   14.6279287338256836
Na Cd Cu Ag S
8 1 1 5 9
direct
   0.1699811369180679    0.2106650918722153    0.2273631244897843 Na
   0.1701629012823105    0.6098434925079346    0.1997564733028412 Na
   0.6666666666666666    0.6974781751632690    0.8475968241691588 Na
   0.1666261553764343    0.0272015314549208    0.4899927079677582 Na
   0.1692471802234650    0.3827438950538636    0.8126167058944702 Na
   0.6671707034111023    0.0656690448522568    0.8036966323852539 Na
   0.6684079766273499    0.3114490211009979    0.5946422219276428 Na
   0.6676088571548462    0.8344241976737976    0.0414297580718994 Na
   0.6689609289169312    0.4447947442531586    0.0341573990881443 Cd
   0.6713746190071106    0.7049674987792969    0.6061924099922180 Cu
   0.6687951087951660    0.8878461122512817    0.2843559384346008 Ag
   0.1675439029932022    0.8829966783523561    0.7044371366500854 Ag
   0.6687588691711426    0.3932564854621888    0.3693444430828094 Ag
   0.1684158891439438    0.6354644298553467    0.4497650563716889 Ag
   0.1686676889657974    0.1052019000053406    0.9947608113288881 Ag
   0.6697636842727661    0.2358465939760208    0.9444798231124879 S
   0.6680747270584106    0.8090410232543945    0.4639617204666138 S
   0.1705034077167511    0.5886807441711426    0.9883033037185670 S
   0.6706032156944275    0.5260693430900574    0.7129787802696228 S
   0.1679309755563736    0.3435387611389160    0.4472126662731171 S
   0.1703668087720871    0.9151434898376465    0.1828526109457016 S
   0.1648635715246201    0.8909325003623962    0.8863428235054017 S
   0.6702013015747070    0.4096814095973969    0.2014528661966324 S
   0.1687192320823669    0.1347164064645767    0.6715927720069885 S
