Na24 Cu3 O15
1.0
   6.4916038513183594    0.0000000000000000   -1.4326308965682990
  -0.9677210685054977    7.0901978321352823   -1.5883628129959102
   0.0000000000000000    0.0000000000000000   13.4072046279907227
Na Cu O
24 3 15
direct
   0.8576372265815735    0.7165237069129944    0.4320709109306335 Na
   0.4772520661354065    0.1346878111362457    0.1121750175952911 Na
   0.7805237174034119    0.5124216079711914    0.2040667086839676 Na
   0.7213502526283264    0.3849220573902130    0.9422158002853392 Na
   0.2115728110074997    0.1050195172429085    0.2622819244861603 Na
   0.8673746585845947    0.0421128608286381    0.8529835343360900 Na
   0.7923944592475891    0.6138233542442322    0.7112084627151489 Na
   0.2520214617252350    0.4736048281192780    0.0593257546424866 Na
   0.4460148811340332    0.7914841771125793    0.3410793244838715 Na
   0.0861126855015755    0.4753480553627014    0.8315343260765075 Na
   0.4670838713645935    0.3940067589282990    0.7503525018692015 Na
   0.1033051088452339    0.8391124010086060    0.9949679374694823 Na
   0.2069495171308517    0.4389172792434692    0.5771741271018982 Na
   0.8059931397438049    0.3239844739437103    0.3845034539699554 Na
   0.1369950324296951    0.8164666295051575    0.6656900048255920 Na
   0.8868445754051208    0.2149895429611206    0.6192604303359985 Na
   0.4328970909118652    0.7741345763206481    0.8451282382011412 Na
   0.2088827192783356    0.4611995220184326    0.3115461170673370 Na
   0.5493090748786926    0.5448371767997742    0.5071331858634949 Na
   0.3004380464553833    0.1381613314151764    0.8789350986480712 Na
   0.5201849937438965    0.0075767468661070    0.6593388915061951 Na
   0.6133443713188171    0.7582111358642578    0.0427847057580948 Na
   0.7662558555603027    0.9516636133193970    0.2677282392978668 Na
   0.1213288381695747    0.0345274507999420    0.4750409722328185 Na
   0.8929073810577393    0.1503348052501678    0.0785634219646454 Cu
   0.1206212639808655    0.7504519224166870    0.1842452883720398 Cu
   0.5200816988945007    0.1478471159934998    0.4520468115806579 Cu
   0.8871123194694519    0.2172512263059616    0.2191658914089203 O
   0.7471932172775269    0.0213413238525391    0.4467239379882812 O
   0.2961730659008026    0.2760986089706421    0.4339958131313323 O
   0.1318118125200272    0.1667953431606293    0.0228192228823900 O
   0.5632377862930298    0.5189366340637207    0.3192007839679718 O
   0.2173346132040024    0.1411886364221573    0.6619357466697693 O
   0.4109219610691071    0.4966050982475281    0.9204377532005309 O
   0.7715001106262207    0.2877230346202850    0.7665460109710692 O
   0.6380334496498108    0.0477246381342411    0.9731358885765075 O
   0.4670692682266235    0.6848758459091187    0.6712013483047485 O
   0.3935177028179169    0.8668209910392761    0.1715674102306366 O
   0.9035249948501587    0.5416680574417114    0.5550862550735474 O
   0.0679536163806915    0.7713581919670105    0.3172826766967773 O
   0.9254250526428223    0.6275894045829773    0.0711059346795082 O
   0.0833882689476013    0.8064469695091248    0.8227450251579284 O
