K3 Na13 Fe4 O16
1.0
   6.3972454071044931    0.0000000000000000    2.0027320384979248
  -0.5692110012005883    8.6790089604826548    1.2881970405578624
   0.0000000000000000    0.0000000000000000   10.2304821014404297
K Na Fe O
3 13 4 16
direct
   0.3443411588668823    0.5371763706207275    0.7644564509391785 K
   0.9147797822952271    0.5386993288993835    0.5622463822364807 K
   0.2230944037437439    0.3234793543815613    0.0531990639865399 K
   0.1335943490266800    0.0226108394563198    0.9055650830268860 Na
   0.9676820635795593    0.1678131222724915    0.3692888021469117 Na
   0.5290235877037048    0.8547760248184204    0.8380361795425415 Na
   0.8127442598342896    0.5065976977348328    0.2468328922986984 Na
   0.8820664882659912    0.8459718823432922    0.2966395616531372 Na
   0.3862183392047882    0.5669600963592529    0.3772526979446411 Na
   0.7775101065635681    0.4261048436164856    0.9696685671806335 Na
   0.9868540763854980    0.8917180895805359    0.6554205417633057 Na
   0.5833771228790283    0.1976345330476761    0.6266680955886841 Na
   0.5496622920036316    0.0704863220453262    0.0496078170835972 Na
   0.7670434713363647    0.7497448325157164    0.0163664445281029 Na
   0.3516027331352234    0.8727301359176635    0.2990699112415314 Na
   0.2379209995269775    0.2110803127288818    0.5866439342498779 Na
   0.8518896102905273    0.1883873194456100    0.7860255837440491 Fe
   0.2264934629201889    0.6774246096611023    0.0919910669326782 Fe
   0.4834517240524292    0.8692631125450134    0.5603504776954651 Fe
   0.5598428249359131    0.2004594653844833    0.3145612478256226 Fe
   0.0738590806722641    0.2886777520179749    0.8096377849578857 O
   0.1101858541369438    0.6138951778411865    0.2824377119541168 O
   0.9204728007316589    0.1877483427524567    0.5954313874244690 O
   0.6410548686981201    0.0163230095058680    0.4118463397026062 O
   0.6800943613052368    0.7648246884346008    0.6234989762306213 O
   0.2571260631084442    0.8879021406173706    0.0722041502594948 O
   0.0435453504323959    0.5985142588615416    0.0090608401224017 O
   0.3258934020996094    0.1468948721885681    0.2646710574626923 O
   0.8029923439025879    0.2643066644668579    0.1758792698383331 O
   0.4761546850204468    0.6092334389686584    0.9919642210006714 O
   0.6383347511291504    0.7296721339225769    0.2387006580829620 O
   0.8110038042068481    0.9812869429588317    0.8730676770210266 O
   0.6061370372772217    0.2769478857517242    0.8464858531951904 O
   0.2677997052669525    0.7487530112266541    0.5371609330177307 O
   0.5231477618217468    0.3451353609561920    0.4375274777412415 O
   0.3471518158912659    0.9843140244483947    0.6934484243392944 O
