Cs2 Na4 V2 O8
1.0
   5.8077640533447266    0.0000000000000000    1.8304032087326052
   2.6159072905573457    5.1842525544580491    1.8249515295028671
   0.0000000000000000    0.0000000000000000   10.1278963088989258
Cs Na V O
2 4 2 8
direct
   0.2266043722629547    0.2340856343507767    0.7895591259002686 Cs
   0.3568304777145386    0.3640232086181641    0.3978852629661560 Cs
   0.0958257913589478    0.1047268286347389    0.1764704436063766 Na
   0.8369382619857788    0.8451390862464906    0.9573588371276855 Na
   0.6178407669067383    0.6258410215377808    0.6151582598686218 Na
   0.7267925739288330    0.7345451116561891    0.2877197265624999 Na
   0.4756945073604584    0.4840548634529114    0.0390984527766705 V
   0.9782811403274536    0.9855995178222656    0.5338404774665833 V
   0.1382546126842498    0.6154299378395082    0.1129773110151291 O
   0.6074483990669250    0.1476174592971802    0.1126595735549927 O
   0.5354518294334412    0.5450309514999390    0.8572551608085632 O
   0.8462682366371155    0.8533855080604554    0.4622740447521210 O
   0.9200841188430786    0.9269488453865052    0.7154012918472290 O
   0.6074938774108887    0.6156972646713257    0.1133583411574364 O
   0.8469570279121399    0.3220388889312744    0.4610902965068817 O
   0.3143648207187653    0.8546689152717590    0.4611834287643433 O
