Na8 Ge4 S12
1.0
   6.9729104042053223    0.0000000000000000    0.0629101544618605
  -1.3446431869051882    7.0871440721413537    0.9689297676086421
   0.0000000000000000    0.0000000000000000   11.0998163223266602
Na Ge S
8 4 12
direct
   0.1128783822059631    0.3260665237903596    0.3956355452537537 Na
   0.4010787904262543    0.9870106577873230    0.8610120415687561 Na
   0.2071254551410675    0.8751438260078430    0.2423805445432663 Na
   0.0281350146979094    0.7894993424415588    0.5838225483894348 Na
   0.6560803651809692    0.5806452631950378    0.3067867755889893 Na
   0.4733674526214600    0.5066792964935303    0.6699194908142090 Na
   0.7504035830497742    0.1525835543870926    0.1459753811359406 Na
   0.8378224372863770    0.6971021294593812    0.9500314593315125 Na
   0.0494541004300118    0.2938593029975892    0.8556756377220154 Ge
   0.5778567194938660    0.9560482501983643    0.4520879983901978 Ge
   0.2679415047168732    0.5509681701660157    0.0508793406188488 Ge
   0.8224903941154480    0.2142503559589386    0.6658563613891602 Ge
   0.6434350013732910    0.9294933080673219    0.6614347100257874 S
   0.0020956993103027    0.5230176448822021    0.1659373790025711 S
   0.4496593177318573    0.1879575252532959    0.3353108167648315 S
   0.3727432787418365    0.2656651735305786    0.0716147795319557 S
   0.1945817023515701    0.6013488769531250    0.8472284674644470 S
   0.5187508463859558    0.7705771923065186    0.0804904177784920 S
   0.0986651256680489    0.0796286016702652    0.0150462770834565 S
   0.7329166531562805    0.2995229959487915    0.8527069091796875 S
   0.3546754717826843    0.6947100758552552    0.4563901126384735 S
   0.8075318336486816    0.4497432708740234    0.5333761572837830 S
   0.8668844103813171    0.9581262469291687    0.3661444187164307 S
   0.1382647752761841    0.1760818958282471    0.6867337822914124 S
