Na8 Fe4 O8                              
   1.00000000000000     
     5.3348389174386499    0.0308138733402672   -1.5581272867400859
    -0.2999820286850136    6.4347621438205787   -1.2311099629914104
     0.1438514926683475   -0.0016858179112410    8.1747915593929683
   Na   Fe   O 
     8     4     8
Direct
  0.8749421409211127  0.4996626818212989  0.8741646156626661
  0.2825195231226604  0.9036155666256201  0.6136797070330782
  0.2945511261581574  0.5710144269124758  0.2414535290054890
  0.8055843640335427  0.3490191838209802  0.2040305397510908
  0.8444942330430927  0.8384029089911982  0.2283441237491267
  0.2925058606382847  0.4452047147631077  0.6087385765613408
  0.3386728170795910  0.0841364982273340  0.2393269313617104
  0.8680087462648075 -0.0106622490496888  0.8687657234534605
  0.7904543116887927  0.1765657873093941  0.5502313803921106
  0.7542271806618014  0.6489198366210068  0.5018711851235093
  0.3126990152197368  0.2494064443017397  0.9190717650966546
  0.3796874872964049  0.7595544270060587  0.9616257646160037
  0.0913161815994073  0.2066045935902159  0.7035745987099749
  0.6743074387221634  0.9137004502384715  0.5190366844976975
  0.4838066248022926  0.0149726214768403 -0.0394706299681752
  0.4809578934408781  0.5003913345837189  0.9599541820026082
  0.1013158516390251  0.2803011027439594  0.0614768096357755
  0.6222752193545715  0.3849174932205139  0.4571348736317482
  0.0304922317695473  0.6284254805062991  0.4213491852028469
  0.1157408264989520  0.7877549445612488  0.0529697169856379
 
  0.00000000E+00  0.00000000E+00  0.00000000E+00
  0.00000000E+00  0.00000000E+00  0.00000000E+00
  0.00000000E+00  0.00000000E+00  0.00000000E+00
  0.00000000E+00  0.00000000E+00  0.00000000E+00
  0.00000000E+00  0.00000000E+00  0.00000000E+00
  0.00000000E+00  0.00000000E+00  0.00000000E+00
  0.00000000E+00  0.00000000E+00  0.00000000E+00
  0.00000000E+00  0.00000000E+00  0.00000000E+00
  0.00000000E+00  0.00000000E+00  0.00000000E+00
  0.00000000E+00  0.00000000E+00  0.00000000E+00
  0.00000000E+00  0.00000000E+00  0.00000000E+00
  0.00000000E+00  0.00000000E+00  0.00000000E+00
  0.00000000E+00  0.00000000E+00  0.00000000E+00
  0.00000000E+00  0.00000000E+00  0.00000000E+00
  0.00000000E+00  0.00000000E+00  0.00000000E+00
  0.00000000E+00  0.00000000E+00  0.00000000E+00
  0.00000000E+00  0.00000000E+00  0.00000000E+00
  0.00000000E+00  0.00000000E+00  0.00000000E+00
  0.00000000E+00  0.00000000E+00  0.00000000E+00
  0.00000000E+00  0.00000000E+00  0.00000000E+00
