Generated by VASPKIT code
 1.000000
    5.6275352877324689   -0.0407208703546829    0.2705375579685436
   -1.3240840458443870    6.6344241935677104    0.2575472355468042
   -0.1564149964852959    0.0114582572036297    8.5028011684668527
   K    S    N    O    F 
     1     3     1    12     1
Direct
    0.4797974406586072    0.4534709075643641    0.4650908152222779     K001
    0.5664924148488978    0.7341404044038358    0.9992664172962510     S001
    0.9527265471520789    0.2741803012786563    0.2481343771867272     S002
    0.6669690852087627    0.9818462542864658    0.4882753345385084     S003
    0.0853495852169994    0.3460545346790682    0.7647561017108182     N001
    0.4543929298010499    0.6576606843613210    0.1517167705163987     O001
    0.6902654147044817    0.1334038504169539    0.6052397703579520     O002
    0.4203445445646319    0.8626579409684365    0.4796853693782467     O003
    0.6185361090060869    0.5885544940935928    0.8914118396445199     O004
    0.8827593908757200    0.3078518039834969    0.0893621985348231     O005
    0.2308875338335352    0.2253715622278461    0.7434611470237350     O006
    0.4711549139735915    0.9010349544407946    0.9290422245475896     O007
    0.9658325174925553    0.4474666772132499    0.3473203115671727     O008
    0.8513993120741071    0.8568162958607101    0.4935037933625570     O009
    0.1639372171196464    0.5247766956072974    0.7109637044072088     O010
    0.1522769125766002    0.1690041331812355    0.2686350620992053     O011
    0.6977837652285669    0.1046051097188255    0.3157651608762990     O012
    0.8447582409057925    0.8465207490093093    0.0452846865756772     F001
