Rb1 Nb1 W9 N2 Cl28 O2                   
   1.00000000000000     
     9.2426338694927370    0.6681845797329313   -0.8835163240225608
    -2.0488071650016257    8.3394182633183949    0.3487718902339851
    -0.4094054888706354   -0.0560421051065244   17.7114626516088371
   Rb   Nb   W    N    Cl   O 
     1     1     9     2    28     2
Direct
  0.6913347654403984  0.6888795620897066  0.7603873672348874
  0.2690763835253365  0.7952208790557171  0.1066439174238669
  0.5887756306957738  0.1810100292867586  0.5880506655310532
  0.2358160221561303  0.5054033362792298  0.9753634875306957
  0.6129125519469376  0.2635409749841562  0.4363692696381796
  0.6000532223266157  0.9589174279378797  0.4874835355098497
  0.6017316944333014  0.4884005616369771  0.5369829679236409
  0.2262297152540443  0.9813043383831851 -0.0093625690908032
  0.9000133824628898  0.1473035922642462  0.3332726003578846
  0.1812589701867762  0.7027849388820051  0.8699357867595147
  0.4200628893540403  0.8340310999398700  0.9478174701965668
  0.2281211973440991  0.7369775582926880  0.9888289616695705
  0.7582665461440833  0.2224788452068540  0.3634581742628515
  0.4351069066263355  0.0380650584124122  0.3872617895266356
  0.4630298670866465  0.4470729629673795  0.0159084128579879
  0.9749458260354054  0.5299987845442553  0.9252613525583677
  0.0560801729145400  0.9332268543910163  0.8738093124232824
  0.4084032683333820  0.9415471289876769  0.5656149002575227
  0.4787503079975063  0.6710826603562682  0.4459338249708528
  0.7636783962221306  0.8964214430828740  0.3932150538331530
  0.7401851211766342  0.7800653700326506  0.5701248481174637
  0.7683217437703127  0.4079405746730890  0.6369442632084563
  0.7951947907579546  0.5008150605573323  0.4589120806384135
  0.0736522468243155  0.1307771404037205  0.4330312621985321
  0.3451087948930153  0.0796795480679474  0.1132727522282689
  0.6681220632783753  0.8170686065557007  0.9312499234719617
  0.2557232519290368  0.4513292951817224  0.8441992397724876
  0.0305432701504812  0.3595400978038480  0.2774257930299082
  0.4454923332909315  0.2130878556280410  0.6879182119346438
  0.1197554285267652  0.2259729823042743  0.9822215500742206
  0.0518856017908614  0.6770557393160250  0.7450985768643038
  0.1806966911564871  0.5026318742215549  0.1082118088098228
  0.4550259473180734  0.1203159117120187  0.9460121900876478
  0.0202920984638983  0.8667503066821736  0.0657334952045654
  0.5207612833263756  0.7850381182797393  0.0901330453073043
  0.3810685285415287  0.8542733713131232  0.8106803779757242
  0.7223460665312573  0.0436470286790236  0.6891532942195854
  0.4412535099059081  0.5446589218409267  0.6196014666774842
 -0.1793159736769593  0.0163511203202876  0.2224883337778512
  0.5059410097294665  0.3995461054573992  0.3306708291752985
  0.2259616119305846  0.7859152226888325  0.2334691375622072
  0.4511471289548727  0.2931275849505484  0.5075208394429233
  0.7498527311554675  0.1532079325086602  0.5184572603437217
 
  0.00000000E+00  0.00000000E+00  0.00000000E+00
  0.00000000E+00  0.00000000E+00  0.00000000E+00
  0.00000000E+00  0.00000000E+00  0.00000000E+00
  0.00000000E+00  0.00000000E+00  0.00000000E+00
  0.00000000E+00  0.00000000E+00  0.00000000E+00
  0.00000000E+00  0.00000000E+00  0.00000000E+00
  0.00000000E+00  0.00000000E+00  0.00000000E+00
  0.00000000E+00  0.00000000E+00  0.00000000E+00
  0.00000000E+00  0.00000000E+00  0.00000000E+00
  0.00000000E+00  0.00000000E+00  0.00000000E+00
  0.00000000E+00  0.00000000E+00  0.00000000E+00
  0.00000000E+00  0.00000000E+00  0.00000000E+00
  0.00000000E+00  0.00000000E+00  0.00000000E+00
  0.00000000E+00  0.00000000E+00  0.00000000E+00
  0.00000000E+00  0.00000000E+00  0.00000000E+00
  0.00000000E+00  0.00000000E+00  0.00000000E+00
  0.00000000E+00  0.00000000E+00  0.00000000E+00
  0.00000000E+00  0.00000000E+00  0.00000000E+00
  0.00000000E+00  0.00000000E+00  0.00000000E+00
  0.00000000E+00  0.00000000E+00  0.00000000E+00
  0.00000000E+00  0.00000000E+00  0.00000000E+00
  0.00000000E+00  0.00000000E+00  0.00000000E+00
  0.00000000E+00  0.00000000E+00  0.00000000E+00
  0.00000000E+00  0.00000000E+00  0.00000000E+00
  0.00000000E+00  0.00000000E+00  0.00000000E+00
  0.00000000E+00  0.00000000E+00  0.00000000E+00
  0.00000000E+00  0.00000000E+00  0.00000000E+00
  0.00000000E+00  0.00000000E+00  0.00000000E+00
  0.00000000E+00  0.00000000E+00  0.00000000E+00
  0.00000000E+00  0.00000000E+00  0.00000000E+00
  0.00000000E+00  0.00000000E+00  0.00000000E+00
  0.00000000E+00  0.00000000E+00  0.00000000E+00
  0.00000000E+00  0.00000000E+00  0.00000000E+00
  0.00000000E+00  0.00000000E+00  0.00000000E+00
  0.00000000E+00  0.00000000E+00  0.00000000E+00
  0.00000000E+00  0.00000000E+00  0.00000000E+00
  0.00000000E+00  0.00000000E+00  0.00000000E+00
  0.00000000E+00  0.00000000E+00  0.00000000E+00
  0.00000000E+00  0.00000000E+00  0.00000000E+00
  0.00000000E+00  0.00000000E+00  0.00000000E+00
  0.00000000E+00  0.00000000E+00  0.00000000E+00
  0.00000000E+00  0.00000000E+00  0.00000000E+00
  0.00000000E+00  0.00000000E+00  0.00000000E+00
