Ba1 Zr1 W1 O6                           
   1.00000000000000     
     4.9737217120751467   -0.0004072867093552    2.8675583291359654
     1.6577991444650408    4.6880740457043908    2.8683352567740488
     0.0011070670655277   -0.0004551002810417    5.7426794127830298
   Ba   Zr   W    O 
     1     1     1     6
Direct
  0.0313826797965585  0.1980159015943264  0.5890382459499865
  0.2815959365747654  0.4479812309693385  0.8395129813426013
  0.7816486243161820  0.9481132235305116  0.3393003802576277
  0.5421669479482236  0.1875491741622978  0.5784442545249161
  0.0209156966978692  0.7088745926382648  0.0994440087522865
  0.0207936475681271  0.7086689736561581  0.5786357113168781
  0.0211226658542390  0.1872500141448831  0.1001936233686795
  0.5424398916814317  0.1875681117456485  0.0995901559473495
  0.5418870919618762  0.7089371509859621  0.5784132092808514
 
  0.00000000E+00  0.00000000E+00  0.00000000E+00
  0.00000000E+00  0.00000000E+00  0.00000000E+00
  0.00000000E+00  0.00000000E+00  0.00000000E+00
  0.00000000E+00  0.00000000E+00  0.00000000E+00
  0.00000000E+00  0.00000000E+00  0.00000000E+00
  0.00000000E+00  0.00000000E+00  0.00000000E+00
  0.00000000E+00  0.00000000E+00  0.00000000E+00
  0.00000000E+00  0.00000000E+00  0.00000000E+00
  0.00000000E+00  0.00000000E+00  0.00000000E+00
