Na2 V1 Si2 O7
1.0
   5.9999623298645020    0.0000000000000000    0.0635486096143719
   1.6083064534509506    5.1227085398098069   -0.5811999440193184
   0.0000000000000000    0.0000000000000000    5.9680924415588379
Na V Si O
2 1 2 7
direct
   0.8225073814392090    0.9522354006767273    0.2629575729370117 Na
   0.5901059508323669    0.5755940675735474    0.8037408590316772 Na
   0.2820903360843658    0.0748494416475296    0.5015231370925903 V
   0.1359693259000778    0.3613466322422028    0.0270020384341478 Si
   0.3874664008617401    0.5761069059371948    0.3601281046867371 Si
   0.4867282509803773    0.3126636445522308    0.4871393740177154 O
   0.2339387089014054    0.1438271254301071    0.8097162842750549 O
   0.1092373356223106    0.2110103219747543    0.2520473897457123 O
   0.3668290972709656    0.4817701578140259    0.0900489389896393 O
   0.5551406741142273    0.7681676745414734    0.4152086079120636 O
   0.1401277035474777    0.7866000533103943    0.4716024994850159 O
   0.9060676097869875    0.5950398445129393    0.9883056282997130 O
