Generated by VASPKIT code
 1.000000
    5.7419393722704219   -0.1049760568869873    1.2287255535474360
    1.5572398206170182    3.9637319812701928    1.8671219820899672
    0.0831527541459309   -0.1178850607585633    5.9816987092941938
   Ca   Bi   O 
     1     1     5
Direct
    0.5812177680651986    0.2534702149793925    0.7853195024873627    Ca001
    0.7961960522688153    0.4465665891514667    0.1845470091195043    Bi001
    0.1546088223004281    0.3653551148939878    0.9872316636483053     O001
    0.6180922655723177    0.7012420842630600    0.8524317552984866     O002
    0.7820693931935830    0.9635165045989506    0.1629687963949647     O003
    0.9542363867169205    0.1985113037852512    0.5205674275460382     O004
    0.4428363697558037    0.5204978140919331    0.3890643704319558     O005
