Generated by VASPKIT code
 1.000000
    8.7823419570922852    0.0000000000000000    0.1166488379240040
   -4.3625269853542665    6.3236098732259922   -4.3373355865478507
    0.0000000000000000    0.0000000000000000    9.1140069961547852
   Ta   Ga   Si   Sn   P    S    O 
     1     1     1     2     4     1    24
Direct
    0.6294604539871216    0.5251789689064026    0.6338308453559875    Ta001
    0.8471848368644714    0.9450029134750366    0.2718162536621094    Ga001
    0.0159402098506689    0.0248530376702547    0.9581108093261719    Si001
    0.3279359638690948    0.9398923516273499    0.7500611543655397    Sn001
    0.1164056211709976    0.5130603909492493    0.1402108073234559    Sn002
    0.5225583314895630    0.7366273403167725    0.4464827477931976     P001
    0.7235049605369568    0.4470260739326478    0.9566298127174377     P002
    0.9359223246574402    0.4293119907379151    0.4489697217941284     P003
    0.2205387949943542    0.0185938309878111    0.4430350363254547     P004
    0.4413955211639405    0.7331275343894960    0.9530910253524780     S001
    0.1009887680411339    0.6257089376449585    0.6215304732322693     O001
    0.7570555806159973    0.4311629831790924    0.4742428064346313     O002
    0.6947665810585022    0.4502044916152954    0.7869483232498169     O003
    0.1996349990367889    0.0149683589115739    0.9310209751129150     O004
    0.5991188883781433    0.8662794828414918    0.1103976443409920     O005
    0.5430350899696350    0.5812440514564514    0.4744371175765991     O006
    0.0528200641274452    0.0228695347905159    0.4260177314281464     O007
    0.9544611573219299    0.4489988386631012    0.2894141674041748     O008
    0.3452838063240051    0.5807389616966248    0.2839527726173401     O009
    0.2452282011508942    0.0159018188714981    0.6087923645973206     O010
    0.0411081835627556    0.2232649922370911    0.9652979373931885     O011
    0.4655820429325104    0.5948611497879029    0.7885524630546570     O012
    0.2648988068103791    0.5877270102500917    0.9668357968330383     O013
    0.8988194465637207    0.2291226834058762    0.4195384383201599     O014
    0.3986325263977051    0.2226409167051316    0.4740695059299469     O015
    0.4098422825336456    0.8755714297294617    0.9308820962905884     O016
    0.4955869317054749    0.8751542568206788    0.6171935796737671     O017
    0.9030327796936035    0.4504188895225525    0.9688215851783752     O018
    0.7421144247055054    0.6350694894790649    0.1188028976321220     O019
    0.2083586156368256    0.8299057483673096    0.2731429934501648     O020
    0.6928275227546692    0.8743005394935608    0.4166750013828278     O021
    0.9812449812889099    0.0005243807099760    0.1206166073679924     O022
    0.5577710270881653    0.2428423166275024    0.9328769445419312     O023
    0.8345235586166382    0.8061621785163881    0.7779269814491272     O024
