Generated by VASPKIT code
 1.000000
    7.3699545693794182    0.0907512354944563    2.4560170034928892
   -0.7076151332545125    6.5706471691761186   -1.1677419512447307
    0.1720242448831706   -0.0834093915295815   12.6015679959677716
   Ca   Mg   Ta   Si   P    O 
     1     1     1     4     3    25
Direct
    0.3677675269678284    0.1172043538534332    0.3188289604221294    Ca001
    0.5110636125725337    0.0521241880198034    0.0015041134290418    Mg001
    0.9637941342927689    0.3527050037863619    0.8577275729661442    Ta001
    0.3173461847280651    0.4157571703918834    0.1867550563585918    Si001
    0.5739079275016932    0.3053609909812533    0.7835010576442977    Si002
    0.3139851821624735    0.5796455587661569    0.9659002031147264    Si003
    0.3830980209413291    0.3869539486642335    0.6198027762829645    Si004
    0.7190272748997617    0.9489370287232843    0.2100952221347136     P001
    0.0590020291434543    0.6723577685842713    0.3897723293258547     P002
    0.8966508841362484    0.8459846571261234    0.8258607347256951     P003
    0.7033541497121196    0.8657941702261925    0.9033511387154008     O001
    0.1283059215444051    0.4326146175685306    0.9546058976738110     O002
    0.8014842012809179    0.3273341291962853    0.7565527248390518     O003
    0.9221193899327303    0.8070332877054242    0.6983460396639986     O004
    0.1762639948450124    0.6519853736513029    0.4632946223646490     O005
    0.8568337065687041    0.5949848114051725    0.4413662628866349     O006
    0.5810656941703288    0.9736437579742647    0.1464255156772520     O007
    0.8186950848664462    0.7546896135969999    0.1574917473250334     O008
    0.4865238429548816    0.5232030896700034    0.8500646726435950     O009
    0.4207748059765120    0.6316498191736609    0.6235028795146800     O010
    0.0216026449526166    0.0475024484878128    0.8487714644130244     O011
    0.1760040520308998    0.3271086292161497    0.7076035148754261     O012
    0.5989022211372854    0.9450988972487202    0.3368809250477956     O013
    0.2830779725972967    0.1744423064790492    0.1443166121611838     O014
    0.9780445361213729    0.6672303022394995    0.8569046594984446     O015
    0.2895145591344300    0.8181207844413462    0.9870059713660325     O016
    0.3726318231160037    0.5295538594066134    0.0724637030199162     O017
    0.3872980102649671    0.2632603634966327    0.4950433158617822     O018
    0.4657067990115183    0.4426605874177498    0.2532899486727982     O019
    0.0890360394274505    0.8958803177533055    0.3651483046629292     O020
    0.4735280750802926    0.1258092554654441    0.8562665265530690     O021
    0.5423725204607091    0.2851713236352901    0.6561530827387376     O022
    0.8628370816091337    0.1362976955008365    0.2050840247678868     O023
    0.7553642897137151    0.3121549195780109    0.9778816786131532     O024
    0.1255561856110206    0.5287935693168923    0.2682423355098728     O025
