Generated by VASPKIT code
 1.000000
    5.5346683490608974    0.0073324529849985    0.3556680807002417
   -0.0043867113885718    3.3296679096764801    0.0046680165095413
    0.0091198448510890    0.0077084925679085    6.5648735241349829
   Mg   Fe   O 
     1     1     4
Direct
    0.6311537562518355    0.4908780690580901    0.2081016323376324    Mg001
    0.3611250121357197    0.4887625299100427    0.5537116924032901    Fe001
    0.2852775074717134    0.9881845119320758    0.6551123417303404     O001
    0.7584494594303528    0.9913364187161368    0.0884952825693956     O002
    0.6946148404732330    0.4893582863311135    0.5164660163132030     O003
    0.2694873669566531    0.4904571845050733    0.2829129835172114     O004
