Generated by VASPKIT code
 1.000000
    5.3991665840148926    0.0000000000000000    0.0166891645640124
    0.0056507725419263    7.2904507672183945   -0.0045769456773996
    0.0000000000000000    0.0000000000000000    5.4440021514892578
   Ga   O 
     4     8
Direct
    0.0014554262161255    0.3257189691066742    0.8496537804603577    Ga001
    0.8816707134246827    0.5767390131950378    0.3493070304393768    Ga002
    0.3822990357875825    0.8270249962806702    0.4697487950325012    Ga003
    0.5008678436279297    0.0758825466036797    0.9705352783203125    Ga004
    0.3420548439025879    0.2888147234916687    0.8814101815223694     O001
    0.0410921350121498    0.7875925898551941    0.4377124905586243     O002
    0.9673616290092469    0.3646699786186219    0.5096874237060547     O003
    0.8416020870208741    0.1138838976621628    0.9366117119789124     O004
    0.4139495193958283    0.8651374578475953    0.8085923790931702     O005
    0.5407672524452209    0.6153697967529297    0.3818123936653137     O006
    0.4685593843460084    0.0376221127808094    0.3087322115898132     O007
    0.9150866866111756    0.5378617048263550    0.0098855318501592     O008
