Na6 Sc1 Cl8
1.0
   6.8205552101135245    0.0000000000000000    3.9582879543304452
   2.2757723051628584    6.4321926386824879    3.9569816589355460
   0.0000000000000000    0.0000000000000000    7.8914470672607422
Na Sc Cl
6 1 8
direct
   0.4710914492607117    0.2675818502902985    0.5457379221916199 Na
   0.9706377983093264    0.7676703333854676    0.5461360216140746 Na
   0.4712239801883698    0.7674238085746766    0.0460793934762478 Na
   0.4710271656513214    0.2675004303455353    0.0464142449200153 Na
   0.9711290597915649    0.2673805356025696    0.5462265610694885 Na
   0.9712323546409607    0.7679873108863831    0.0459670946002007 Na
   0.4709494709968567    0.7676061391830445    0.5464259386062621 Sc
   0.2419468611478805    0.5393989682197572    0.7740765213966370 Cl
   0.2428157776594161    0.9958323240280152    0.3176447451114655 Cl
   0.2430435419082642    0.9956108927726746    0.7740178704261780 Cl
   0.2204106748104096    0.5174983739852905    0.2960879206657410 Cl
   0.6991739273071289    0.9953982234001161    0.3182491362094879 Cl
   0.6987942457199097    0.5394011735916139    0.7741569876670837 Cl
   0.7208384871482849    0.0174217391759157    0.7959104776382446 Cl
   0.6988909244537354    0.5393831729888917    0.3178397715091705 Cl
