Na2 Ru1 F6
1.0
   5.0210685729980469    0.0000000000000000    2.9076318740844727
   1.6428737957931492    4.7621414003969820    2.8943436145782480
   0.0000000000000000    0.0000000000000000    5.8202052116394043
Na Ru F
2 1 6
direct
   0.4496725797653198    0.5463004708290100    0.8938720226287842 Na
   0.1991173475980759    0.2958791553974152    0.6436196565628052 Na
   0.9485400915145874    0.0456257760524750    0.3937898576259614 Ru
   0.1856509298086166    0.8102741241455078    0.6304328441619873 F
   0.1857377588748932    0.2823423147201538    0.1577216386795044 F
   0.7133139967918395    0.2814998924732208    0.1573496460914612 F
   0.7129658460617064    0.8104062676429749    0.6296581029891970 F
   0.7136079668998718    0.2817007303237915    0.6303942799568177 F
   0.1844568103551865    0.8103166818618774    0.1571505218744279 F
