Na10 Ca1 Mg1 Ta1 Si4 P3 O25
1.0
   7.2952060699462900    0.0000000000000000    2.3496026992797829
  -0.7844489614049331    6.7430717927487471   -1.1122989654541025
   0.0000000000000000    0.0000000000000000   12.5615758895874023
Na Ca Mg Ta Si P O
10 1 1 1 4 3 25
direct
   0.6395396590232849    0.0550884492695332    0.5066691040992737 Na
   0.2052195966243744    0.8963179588317871    0.5733390450477600 Na
   0.6781674623489380    0.6560921072959900    0.0261501222848892 Na
   0.3638539016246796    0.8516167402267455    0.7842679023742676 Na
   0.5115709304809570    0.6587078571319579    0.4067617654800415 Na
   0.0032244457397610    0.4799814522266387    0.6128571033477783 Na
   0.8099689483642578    0.4338617920875549    0.1922808140516281 Na
   0.0989992991089821    0.8932676315307616    0.1728588044643402 Na
   0.7000980377197266    0.6867017149925231    0.6069033741950989 Na
   0.1380868703126907    0.1087197363376617    0.9980528354644775 Na
   0.3669697642326355    0.1120896935462952    0.3226050734519958 Ca
   0.5331771373748779    0.0727717056870461    0.0040614237077534 Mg
   0.9570251107215881    0.3683972656726837    0.8646070361137390 Ta
   0.3159376084804535    0.4088708460330963    0.1871921271085739 Si
   0.5653262734413147    0.3224591612815856    0.7954328656196594 Si
   0.3130438625812531    0.5900187492370604    0.9707832336425781 Si
   0.3605591058731079    0.3469235301017761    0.6196484565734863 Si
   0.7270700931549072    0.9548382759094238    0.2022816985845566 P
   0.0528554320335388    0.6521632671356200    0.3756765425205231 P
   0.8983167409896851    0.8588457107543944    0.8211194276809692 P
   0.7041151523590088    0.8823914527893065    0.8960833549499512 O
   0.1252750307321548    0.4420968592166901    0.9608498811721802 O
   0.7907168865203857    0.3416844308376312    0.7633533477783203 O
   0.9217113852500916    0.8026524186134337    0.6954165697097778 O
   0.1527960002422332    0.6151700019836425    0.4596325159072876 O
   0.8397546410560608    0.6090456247329712    0.4189198315143585 O
   0.5755132436752319    0.9660875797271727    0.1429246068000793 O
   0.8085719943046570    0.7530049681663513    0.1669864952564240 O
   0.4850263595581055    0.5328025221824646    0.8578317165374756 O
   0.4648223817348480    0.8093619942665099    0.5946304798126221 O
   0.0221298430114985    0.0663830861449242    0.8373323082923889 O
   0.1765387952327728    0.3981012403964996    0.7196699976921082 O
   0.6185287237167358    0.9768128991127013    0.3324282467365265 O
   0.2962833344936371    0.1813654154539108    0.1371334791183471 O
   0.9655652642250061    0.6839239597320556    0.8669414520263672 O
   0.2986322939395905    0.8215587735176085    0.9844197034835815 O
   0.3734863102436066    0.5440613031387329    0.0805132240056992 O
   0.3366036415100098    0.2076732069253922    0.5132466554641724 O
   0.4666731953620911    0.4304835796356201    0.2579400837421417 O
   0.1197926923632622    0.8641788959503173    0.3444990515708923 O
   0.4563832581043243    0.1521677523851395    0.8686786890029907 O
   0.5381311774253845    0.3122826218605042    0.6638498306274414 O
   0.8857774734497070    0.1195750758051872    0.1706915497779846 O
   0.7499743103981018    0.3200942575931549    0.9820524454116821 O
   0.1145605966448784    0.4937171041965484    0.2652582526206970 O
