Rb5 Ti2 Cl1 O6
1.0
   6.7999491691589355    0.0000000000000000   -2.0015501976013192
  -0.7708803390296750    6.8984783283848108    0.8886307477951043
   0.0000000000000000    0.0000000000000000    7.0931172370910645
Rb Ti Cl O
5 2 1 6
direct
   0.6225820779800415    0.4456525743007660    0.6417009830474854 Rb
   0.3054390847682953    0.0421319641172886    0.9595387578010560 Rb
   0.1846348792314529    0.4466611146926880    0.2029801607131958 Rb
   0.8732291460037231    0.0431727394461632    0.5220873355865479 Rb
   0.7441782951354980    0.7433491945266724    0.0832402631640434 Rb
   0.3523030281066895    0.8659576177597046    0.4747023582458497 Ti
   0.1336679905653000    0.6195886135101318    0.6949971318244934 Ti
   0.7426388263702393    0.2465861141681671    0.0853125527501106 Cl
   0.3706713914871216    0.1221570968627930    0.4513944387435914 O
   0.4880882799625397    0.7714105844497681    0.3415759801864624 O
   0.3997035324573517    0.7434981465339662    0.7391609549522400 O
   0.0898477137088776    0.7369188666343689    0.4317440688610077 O
   0.0011200499720871    0.7188228368759155    0.8271122574806213 O
   0.1094533503055573    0.3624094426631927    0.7242575883865356 O
