Na10 Fe2 Cu2 O10
1.0
   6.0241703987121582    0.0000000000000000    0.0663180649280550
  -2.2819553669709900    5.4046861532092549   -0.9345104694366470
   0.0000000000000000    0.0000000000000000   10.0884580612182617
Na Fe Cu O
10 2 2 10
direct
   0.9256625175476074    0.2772782146930695    0.8736311793327332 Na
   0.9961896538734436    0.8098835349082947    0.8789877295494080 Na
   0.3754044771194458    0.4557787179946899    0.1090129837393761 Na
   0.5041211843490601    0.4221958220005035    0.7612811326980591 Na
   0.8808326125144958    0.5026121139526367    0.1572899371385574 Na
   0.2687520086765289    0.6683441996574402    0.3903067111968994 Na
   0.8223202228546143    0.9462357759475708    0.6024462580680847 Na
   0.7333692908287048    0.4516118466854095    0.4635557830333710 Na
   0.2655702531337738    0.0045481654815376    0.1904351413249969 Na
   0.2576359808444977    0.1474095880985260    0.4804037511348724 Na
   0.5261573791503906    0.8867780566215514    0.9889379143714905 Fe
   0.8153227567672729    0.0018330318853259    0.2820945978164673 Fe
   0.4038142263889313    0.8804344534873962    0.7143276929855347 Cu
   0.1059191897511482    0.4885571002960205    0.6355837583541870 Cu
   0.5464478135108948    0.0480128712952137    0.3565998375415802 O
   0.0841412469744682    0.2850392460823059    0.2656520605087280 O
   0.5561338067054749    0.2064091265201569    0.0345602706074715 O
   0.2052609771490097    0.6597520112991333    0.0050291027873755 O
   0.8275093436241150    0.3712153136730194    0.6772844791412354 O
   0.4040066301822662    0.5939064025878906    0.5765625834465027 O
   0.6511780023574829    0.8560256958007812    0.8194790482521057 O
   0.7334386706352234    0.8144180774688721    0.1050763130187988 O
   0.9358158707618713    0.8101708292961121    0.3717849552631378 O
   0.2040331810712814    0.0459236241877079    0.7061774134635925 O
