Na9 Ni3 O9
1.0
   5.1764001846313477    0.0000000000000000    2.6366569995880127
   1.6311569994144302    5.6247541634046305   -0.0647080019116406
   0.0000000000000000    0.0000000000000000    9.9063558578491211
Na Ni O
9 3 9
direct
   0.5222727656364441    0.7841854691505432    0.5458377003669739 Na
   0.1391329318284989    0.3342333436012268    0.6213749051094055 Na
   0.8129439353942871    0.8622680306434631    0.6826663613319397 Na
   0.6687874794006347    0.3427461981773376    0.3525109291076660 Na
   0.6558009386062622    0.8618860244750977    0.2258385270833969 Na
   0.4072386026382446    0.8535896539688110    0.9953604340553284 Na
   0.0496845245361328    0.8173701763153076    0.8847404122352600 Na
   0.1928631663322449    0.3660750091075897    0.0776288062334061 Na
   0.0329193845391273    0.9763240218162538    0.3785202503204346 Na
   0.4885196685791016    0.3442730605602264    0.7634851932525635 Ni
   0.7887278795242310    0.3106639683246613    0.9994958043098450 Ni
   0.2223657965660095    0.5083307623863220    0.3291102945804596 Ni
   0.3070124983787537    0.1997607946395874    0.3488603830337524 O
   0.5019435286521912    0.5713276267051697    0.1418270617723465 O
   0.6549902558326721    0.1567403525114060    0.8839992880821228 O
   0.9117879867553711    0.6269952654838562    0.3151641190052032 O
   0.9483537673950195    0.0891566276550293    0.0929108932614326 O
   0.6067551374435425    0.1545399427413940    0.5820094347000122 O
   0.2239797115325927    0.6736906170845032    0.4915614128112794 O
   0.0937526226043701    0.4166256785392762    0.8674748539924622 O
   0.5140337347984314    0.6457598209381104    0.7665092945098877 O
