Na3 Au1 O2
1.0
   4.6787633895874023    0.0000000000000000    0.0065082083456217
  -2.3401661298424301    4.3564085054232979   -2.3231334686279288
   0.0000000000000000    0.0000000000000000    4.6841182708740234
Na Au O
3 1 2
direct
   0.3997288346290588    0.5206153988838196    0.0646607279777527 Na
   0.8995992541313171    0.5207480192184448    0.5651396512985229 Na
   0.6484131217002869    0.0206115916371345    0.8142580986022949 Na
   0.1487400233745575    0.0210725031793118    0.3133414685726166 Au
   0.9216623306274414    0.5637226700782776    0.0863395333290101 O
   0.3784728646278381    0.4777438938617706    0.5433845520019531 O
