Na3 Mn1 Ag1 P4 O14                      
   1.00000000000000     
     4.9720876138987826   -0.1192861019907812    1.0967771194684870
     0.4454874928312385    7.3054809841808472    0.6194418826482212
    -0.1244618120072908   -0.1192761635729409    9.4572053539606067
   Na   Mn   Ag   P    O 
     3     1     1     4    14
Direct
  0.4052320338236868  0.4633531200385873  0.9015847855004196
  0.2832091905198222  0.0045645009161343  0.1083753341142897
  0.9415176084424128  0.1526068016595382  0.5828590712901127
  0.5443420397300470  0.7586591529718467  0.6244738807519550
  0.8033194972301837  0.5143353905129278  0.1676839371622513
  0.4754163922186299  0.3859488876295435  0.5131371665999518
  0.8577009792933780  0.2136824788568344  0.9475239389012410
  0.9394929304324712  0.8132639536999098  0.8521733451566169
  0.1471385248132490  0.6937574290372635  0.4125672688143807
  0.9476990536337901  0.9868588041569828  0.9433695029468330
  0.8485429101183087  0.7459813112868275  0.4666677412776700
  0.5796899337415621  0.2216310610791004  0.0450271965208423
  0.0669923440723523  0.2818538558621489  0.0252802500579888
  0.7151303550856037  0.3903003181874675  0.3893056730241559
  0.2074651215746862  0.4813685856389721  0.4621867487888570
  0.7793122631281358  0.8651913910528460  0.7289387557876787
  0.7974073267039967  0.6652718312483835  0.9542220979152729
  0.5158511870967716  0.5139093319630667  0.6371356370066413
  0.2268097725206489  0.7280122163266708  0.2507252769626696
  0.8678886794677624  0.2886448307599827  0.7932753685581614
  0.2403493703075923  0.7684516936984799  0.7899612428588210
  0.3162638135534696  0.8075753591170020  0.4954894567411887
  0.4050880283583509  0.1993330662992242  0.5823423098750380
 
  0.00000000E+00  0.00000000E+00  0.00000000E+00
  0.00000000E+00  0.00000000E+00  0.00000000E+00
  0.00000000E+00  0.00000000E+00  0.00000000E+00
  0.00000000E+00  0.00000000E+00  0.00000000E+00
  0.00000000E+00  0.00000000E+00  0.00000000E+00
  0.00000000E+00  0.00000000E+00  0.00000000E+00
  0.00000000E+00  0.00000000E+00  0.00000000E+00
  0.00000000E+00  0.00000000E+00  0.00000000E+00
  0.00000000E+00  0.00000000E+00  0.00000000E+00
  0.00000000E+00  0.00000000E+00  0.00000000E+00
  0.00000000E+00  0.00000000E+00  0.00000000E+00
  0.00000000E+00  0.00000000E+00  0.00000000E+00
  0.00000000E+00  0.00000000E+00  0.00000000E+00
  0.00000000E+00  0.00000000E+00  0.00000000E+00
  0.00000000E+00  0.00000000E+00  0.00000000E+00
  0.00000000E+00  0.00000000E+00  0.00000000E+00
  0.00000000E+00  0.00000000E+00  0.00000000E+00
  0.00000000E+00  0.00000000E+00  0.00000000E+00
  0.00000000E+00  0.00000000E+00  0.00000000E+00
  0.00000000E+00  0.00000000E+00  0.00000000E+00
  0.00000000E+00  0.00000000E+00  0.00000000E+00
  0.00000000E+00  0.00000000E+00  0.00000000E+00
  0.00000000E+00  0.00000000E+00  0.00000000E+00
