Generated by VASPKIT code
 1.000000
    7.6879039486562508    0.1748851507283766   -4.5951688837963438
   -4.8189954021435524    7.1742025948363404   -0.2735801281221064
   -0.1302194903307676   -0.1821824781215068    8.6744216514024632
   Ta   Ti   Al   Si   Sn   P    C    S    O 
     1     1     1     2     1     2     1     1    23
Direct
    0.9361612030611695    0.1101776780701947    0.1344227384838880    Ta001
    0.5071488289531864    0.3847698932097223    0.8378113883108224    Ti001
    0.5695589482497563    0.8760789925631703    0.4020658763301401    Al001
    0.7238215444279322    0.2096786925914852    0.7180007309263039    Si001
    0.4431692378507255    0.4915944658461512    0.4550824598979389    Si002
    0.9408401846603526    0.5947431675900621    0.6346821341175830    Sn001
    0.4563056160078827    0.7294619560023816    0.9776177497208279     P001
    0.0301053103958271    0.0045181339014528    0.5547665351472533     P002
    0.8021788328258552    0.3654283742934713    0.2421221726299523     C001
    0.0014324563478815    0.7708775763716519    0.0359424981289705     S001
    0.0244221845884988    0.8222157927028154    0.5396652533982994     O001
    0.8354641336707285    0.2507932301656328    0.1817246296120138     O002
    0.0186618227861235    0.0601260185854784    0.3836531008419965     O003
    0.8485695786902089    0.9819693906349743    0.5511000647881440     O004
    0.2373418096060196    0.1646547612845975    0.7489560503734317     O005
    0.0077510841265934    0.7739541770041489    0.8667312438270982     O006
    0.2154941156022813    0.3243170208464961    0.2502788896987181     O007
    0.5571569106334280    0.0446196566456073    0.5072471595510013     O008
    0.6540582204990918    0.8773608287149410    0.9989608350744613     O009
    0.2677538395855589    0.7186310850456695    0.7942044807377565     O010
    0.0505274929686719    0.9620095455052330    0.1058515085821007     O011
    0.9202322299273681    0.3925980766890981    0.7473282150788931     O012
    0.6492010175219648    0.3765901133972658    0.1259554525531345     O013
    0.4157978327604384    0.4416226081554823    0.6237617060992482     O014
    0.1566475109986183    0.7454659647134173    0.1885832168993780     O015
    0.7902556805369265    0.6347935305111311    0.9751558797906809     O016
    0.6315311955585918    0.4891214807187698    0.4729425827708282     O017
    0.4630149591868845    0.6866626104498911    0.4603318219138163     O018
    0.4366113466611217    0.5428272662150557    0.9534384970862629     O019
    0.9422075306015227    0.4633395797471811    0.4270557154761527     O020
    0.6002387952809337    0.2601781117485800    0.7779274096161939     O021
    0.4794877858379307    0.8004020545895063    0.1594686469087708     O022
    0.8469316743591692    0.1347803590654190    0.8864673058767766     O023
