Na3 Ti2 Si5 P1 O18
1.0
   6.7508554458618155    0.0000000000000000    0.3056228756904604
   1.0363930436429529    7.2694502717747085    1.3270837068557719
   0.0000000000000000    0.0000000000000000    8.1962480545043945
Na Ti Si P O
3 2 5 1 18
direct
   0.5025217533111572    0.3408571481704712    0.1693788766860962 Na
   0.7079202532768250    0.7905881404876709    0.9072275161743164 Na
   0.1409186422824860    0.3182096779346466    0.5344562530517578 Na
   0.6734342575073242    0.1629833877086640    0.5393864512443542 Ti
   0.0633248165249824    0.4774154424667359    0.0594351291656494 Ti
   0.4117461144924163    0.1732578724622726    0.8652417659759521 Si
   0.7591731548309325    0.5918920040130615    0.3462962508201599 Si
   0.8487836718559263    0.1821926236152649    0.9030761718750000 Si
   0.3734037280082703    0.8938455581665040    0.3899164497852325 Si
   0.2030165046453476    0.8791784048080444    0.0418054573237896 Si
   0.9928047657012938    0.7574078440666199    0.5988991260528564 P
   0.1367078721523285    0.3567297458648682    0.2549539208412170 O
   0.2342529147863388    0.6627724170684814    0.0532988272607327 O
   0.6246879100799561    0.1312783211469650    0.9649705290794373 O
   0.4785071015357971    0.0706246197223663    0.4099776744842529 O
   0.8303436040878295    0.6376442909240723    0.1541117876768112 O
   0.2598398625850677    0.3200144171714783    0.9447781443595886 O
   0.2504719495773315    0.9351451396942139    0.2182722240686417 O
   0.9371216893196105    0.6282300353050232    0.4699130356311798 O
   0.4477678537368774    0.2401738166809082    0.6705313324928284 O
   0.5474246740341187    0.7184352874755859    0.3838597834110260 O
   0.2027341425418854    0.8304268717765808    0.5357369780540466 O
   0.8177107572555541    0.9231070280075073    0.5865681171417236 O
   0.0099442778155207    0.6479042172431947    0.7740678191184998 O
   0.8603717088699340    0.3503893315792084    0.9970645904541016 O
   0.3605545461177826    0.9581751227378845    0.8975269198417664 O
   0.8622431755065917    0.2251669764518738    0.7014336585998535 O
   0.7094203233718872    0.3740757107734680    0.3932590186595917 O
   0.9817765355110167    0.9868196845054628    0.9797300696372986 O
