Generated by VASPKIT code
 1.000000
    6.9595117900128312    0.0143655653730698   -3.3279970069617297
   -4.2510474083509049    9.0460457342217300   -1.5309605289628532
   -0.2438183910014976   -0.1235224383192451    7.6533543553876662
   Ga   Se
     5     9
Direct
    0.9417690731345842    0.9030383722640076    0.7882034528215843    Ga001
    0.0772878514560597    0.0294378333810392    0.3519182137219276    Ga002
    0.0428020010341523    0.3273103601265870    0.9396462746683247    Ga003
    0.5783677226953304    0.4467408663559848    0.4907478241545949    Ga004
    0.9864390623196724    0.3169437538069251    0.4091791264625417    Ga005
    0.7800435954025695    0.0750065512807517    0.7352140076963637    Se001
    0.6200048945176775    0.6796911153657461    0.6867293953261211    Se002
    0.0893887060908253    0.8665616200220853    0.5638356325546270    Se003
    0.9623666980888999    0.4658956452286233    0.6768825075825344    Se004
    0.9648328633779338    0.4541163256724348    0.1710191146736133    Se005
    0.4294746362907305    0.3848731573550369    0.1164781885520899    Se006
    0.7480460474237016    0.0553145994847504    0.2390392253284148    Se007
    0.3401645313754118    0.2967130701207217    0.5924422909017416    Se008
    0.2174696124384131    0.9545742055086793    0.1496038858272017    Se009
