Na6 Zn2 O5
1.0
   5.7712607383728027    0.0000000000000000    1.4547533988952637
  -1.1150145108761929    5.3876748005744224   -1.6785537004470825
   0.0000000000000000    0.0000000000000000    5.7001824378967285
Na Zn O
6 2 5
direct
   0.5656603574752808    0.6818748712539673    0.5337750911712646 Na
   0.3873951733112335    0.2009475082159042    0.6305370330810547 Na
   0.3312994539737701    0.5934302806854248    0.1184122860431672 Na
   0.2685528099536896    0.0591043643653393    0.1562855094671249 Na
   0.8890237212181091    0.1377485841512680    0.5614965558052063 Na
   0.8220199346542358    0.2998773455619812    0.0876529216766358 Na
   0.8119543790817261    0.7978222966194153    0.0607443787157536 Zn
   0.0182125400751829    0.6591156721115112    0.5930384397506714 Zn
   0.9607601761817931    0.7148555517196655    0.2869933545589448 O
   0.5810710191726685    0.9798679351806640    0.2758532464504242 O
   0.6965845823287964    0.4922237396240234    0.8087577819824219 O
   0.0557882189750671    0.9944597482681276    0.8396965861320496 O
   0.2247938662767410    0.4195764362812042    0.4566410183906555 O
