Generated by VASPKIT code
 1.000000
    7.0246393725032537   -0.0029013126621506    0.2600870031335973
    0.4661334965037318    7.6256997702540215   -0.2869334999951176
    0.0168420265725953    0.0392243138119100   12.8431256723231400
   Zn   Cd   S 
     5     1    12
Direct
    0.1254105543768683    0.5028655859489716    0.6759007630395902    Zn001
    0.3177458896191855    0.0233776249373593    0.1848091108150337    Zn002
    0.3809666499894332    0.3454402434604214    0.3482951018269124    Zn003
    0.6167991583821898    0.8290413615158801    0.0046650309277238    Zn004
    0.8458024518118151    0.8287414667865295    0.6866142576524911    Zn005
    0.8350845275792124    0.0489660852110137    0.3477985822713447    Cd001
    0.1911370562204952    0.8083023790714705    0.6856072704603962     S001
    0.2770054701534398    0.8488246045065256    0.0268944469398648     S002
    0.7016272505317017    0.3863734222707642    0.3498845665725538     S003
    0.2418612615355136    0.3733361383481252    0.5117509390265427     S004
    0.7176911224300547    0.9611538142517910    0.8477263630582988     S005
    0.1689848454568130    0.8783002829961177    0.3260967171871680     S006
    0.7395311450332146    0.5382746845567110    0.0148966738758601     S007
    0.6624107007932606    0.9664227980586154    0.1767602896582866     S008
    0.7312435478783686    0.9358598718798021    0.5275045035474238     S009
    0.2335740698807256    0.3782765497646975    0.8234423098975261     S010
    0.7864976617685170    0.5226717356627634    0.6707213278845623     S011
    0.2252289377836283    0.3278416358794123    0.1972659437870880     S012
