Na11 Ga5 Fe3 N9 O1
1.0
   6.3637981414794922    0.0000000000000000   -0.7747926115989687
  -3.1581582967868980    8.3255570233066472   -2.5914185047149689
   0.0000000000000000    0.0000000000000000    8.0808429718017578
Na Ga Fe N O
11 5 3 9 1
direct
   0.5357397198677063    0.5709473490715027    0.8044112920761108 Na
   0.2209278345108033    0.0128393117338419    0.0675354450941086 Na
   0.6173337697982788    0.0363315492868423    0.4449113011360168 Na
   0.1715263426303864    0.2077003717422486    0.5898038148880005 Na
   0.8276811838150024    0.4854965507984161    0.0172833893448114 Na
   0.9454965591430665    0.2188114821910858    0.8789851069450378 Na
   0.4786595702171326    0.6587595343589783    0.4581667482852936 Na
   0.3868390619754791    0.3651977479457855    0.0106984032317996 Na
   0.9064826965332032    0.5803164839744568    0.3691737651824951 Na
   0.6361410617828369    0.9323353767395020    0.0218877401202917 Na
   0.4331577122211457    0.3060435950756073    0.3520877659320831 Na
   0.8583455681800843    0.8749060034751892    0.7119976282119751 Ga
   0.1463408321142197    0.6974548697471619    0.7912556529045105 Ga
   0.2907402813434601    0.6353427767753601    0.1306293159723282 Ga
   0.5011149644851685    0.1264683455228806    0.8249447941780090 Ga
   0.9237471222877504    0.8557582497596741    0.2530212104320527 Ga
   0.8455039858818054    0.4149346351623535    0.6428163647651672 Fe
   0.9167974591255189    0.2638927400112152    0.2564998269081116 Fe
   0.2496544867753983    0.8712093830108643    0.5733988285064697 Fe
   0.6209000945091248    0.2203285545110703    0.0978069454431534 N
   0.2075205743312836    0.8093211054801941    0.2994025945663452 N
   0.1637259125709534    0.4344658851623535    0.2208647429943085 N
   0.8291941285133362    0.6419689059257507    0.6501768231391907 N
   0.1600848138332367    0.0341861061751842    0.7643699645996094 N
   0.9798423051834108    0.0781612619757652    0.2704290151596069 N
   0.5878558158874512    0.2939443290233612    0.7075250148773193 N
   0.1397105753421783    0.5120913982391357    0.8543914556503296 N
   0.5904357433319092    0.9366102814674379    0.7033168673515320 N
   0.6288523077964783    0.6816303730010987    0.1577868759632111 O
