Na6 Mg1 Sn2 S8
1.0
   6.0184044837951660    0.0000000000000000    0.0544398725032802
  -0.2345212632723627    6.1535588632718161    0.2049881666898726
   0.0000000000000000    0.0000000000000000   11.0647373199462891
Na Mg Sn S
6 1 2 8
direct
   0.2056444734334946    0.6799036860466003    0.5676922202110291 Na
   0.7323007583618164    0.6743122935295105    0.8081444501876831 Na
   0.7459017038345337    0.1818738132715225    0.5681605935096741 Na
   0.6974875926971436    0.2207585275173187    0.0579821616411209 Na
   0.2726566493511200    0.2332332134246826    0.3519316613674164 Na
   0.2744129896163940    0.6018331646919250    0.0474791266024113 Na
   0.0236626025289297    0.9273909330368042    0.1748425513505936 Mg
   0.6479460597038269    0.7355361580848694    0.3276741802692413 Sn
   0.2994061410427094    0.0904150530695915    0.8132359385490417 Sn
   0.2160532176494598    0.1639220863580704    0.0393511429429054 S
   0.6928269267082214    0.1812841296195984    0.8188878297805786 S
   0.7520042061805725    0.6773251295089721    0.0973946079611778 S
   0.2233898043632507    0.1865877658128738    0.6001459956169128 S
   0.2466917037963867    0.6973335742950439    0.3101395070552826 S
   0.7763133049011230    0.1324755847454071    0.3071508705615997 S
   0.7170012593269348    0.6641880869865417    0.5401201248168945 S
   0.2225476503372192    0.7012603282928467    0.8152462840080261 S
