Fe2 Se3 O12
1.0
   5.1992588043212882    0.0000000000000000   -0.4646151959896084
   1.3130402625236564    5.0514788617709847   -0.4890183508396150
   0.0000000000000000    0.0000000000000000    9.0542087554931641
Fe Se O
2 3 12
direct
   0.4253222048282623    0.7950785160064696    0.2070310115814209 Fe
   0.8533523678779602    0.2243259996175766    0.6959549188613892 Fe
   0.4177103340625763    0.8090423941612244    0.5925737023353577 Se
   0.8423636555671692    0.2306622862815857    0.3109923303127289 Se
   0.3951310217380524    0.2538985311985015    0.9514396786689758 Se
   0.5571004748344421    0.0655596256256104    0.6036206483840942 O
   0.7731731534004211    0.5244821310043335    0.2290574312210083 O
   0.4244185984134674    0.9469925165176392    0.0059329513460398 O
   0.3727220296859742    0.6913266777992249    0.4159607291221619 O
   0.7006961703300476    0.2222647666931152    0.8963259458541870 O
   0.1562786847352982    0.3445342183113098    0.8124215602874755 O
   0.1219050437211991    0.8787206411361693    0.6742057800292968 O
   0.6214205026626587    0.5816697478294373    0.6975864768028259 O
   0.5864294767379761    0.0907434597611427    0.2994377911090851 O
   0.9569341540336609    0.2762257158756256    0.4860232174396515 O
   0.0696751102805138    0.0264567099511623    0.2056795507669449 O
   0.3068671822547913    0.4887351989746094    0.0926988571882248 O
