Na11 Ni5 O13
1.0
   5.8483266830444336    0.0000000000000000   -0.7323905229568486
  -3.1954645247346338    7.6516669540919535   -1.4439140558242805
   0.0000000000000000    0.0000000000000000    8.5967569351196289
Na Ni O
11 5 13
direct
   0.8889464735984803    0.1125703826546669    0.2986648678779602 Na
   0.8821174502372743    0.5083632469177247    0.4181957542896271 Na
   0.4307830333709718    0.7179798483848573    0.2957166731357574 Na
   0.4281801879405976    0.9677653312683107    0.0338100306689740 Na
   0.8831582665443422    0.2573206722736359    0.6944682002067566 Na
   0.4013893008232117    0.5794410109519958    0.9348360300064087 Na
   0.4122098684310914    0.1032612547278404    0.4303344786167145 Na
   0.9212182760238649    0.0239340923726559    0.9238687753677368 Na
   0.9022549390792848    0.3770168423652649    0.0750673338770867 Na
   0.4175691604614258    0.8504437804222108    0.6453626155853271 Na
   0.9196393489837648    0.6495010852813722    0.7855390310287476 Na
   0.4116628170013428    0.3438959419727325    0.1766542494297028 Ni
   0.3763953447341919    0.1920944005250931    0.8049625158309937 Ni
   0.3706331551074982    0.4717163145542145    0.5507773160934448 Ni
   0.9252687096595765    0.7498673796653748    0.1692567020654678 Ni
   0.9013284444808961    0.8742693066596985    0.5418170094490051 Ni
   0.6370446681976318    0.1340068280696869    0.8666369318962097 O
   0.4868667125701905    0.3272752761840820    0.6555745005607605 O
   0.0944564267992974    0.8356370925903321    0.3858999311923981 O
   0.2134746164083481    0.3860647380352020    0.3264735341072083 O
   0.2306104749441147    0.2895035147666931    0.9616425037384033 O
   0.7483887672424316    0.8630575537681581    0.0840920582413674 O
   0.1332286149263383    0.6921266317367555    0.0534337684512139 O
   0.5867359638214111    0.2182310223579407    0.2395444810390472 O
   0.1644873023033142    0.5361793041229248    0.6613363027572632 O
   0.1270822435617448    0.9566584229469300    0.7394483089447021 O
   0.7125451564788818    0.9960238337516785    0.4915481805801392 O
   0.6627103090286255    0.6651030182838441    0.5679678916931152 O
   0.6679868102073669    0.5501348972320558    0.1760507673025131 O
