K9 Na12 Zn2 Sn2 Sb11
1.0
   5.2553472518920898    0.0000000000000000    0.0521263815462586
   0.0133955334696918   12.7124305720302040   -1.3080377578735354
   0.0000000000000000    0.0000000000000000   19.6520957946777344
K Na Zn Sn Sb
9 12 2 2 11
direct
   0.0734805688261986    0.2702580094337463    0.2790246307849884 K
   0.5761582851409912    0.9060348272323608    0.8057829141616821 K
   0.0761521384119987    0.6699475049972534    0.7240848541259766 K
   0.5762302279472351    0.9273962974548339    0.0272755753248930 K
   0.5739851593971252    0.1122778505086899    0.4054376184940338 K
   0.5748624801635742    0.5255575776100158    0.5762774348258972 K
   0.0776755884289742    0.4021767079830170    0.8709248304367065 K
   0.5751343369483948    0.7580469846725463    0.1957964003086090 K
   0.5757701396942139    0.1843042820692062    0.6732042431831360 K
   0.5767540335655212    0.5936381816864013    0.0148810558021069 Na
   0.5770318508148193    0.1852809637784958    0.9112383723258972 Na
   0.5746762156486511    0.2145904600620269    0.1193257272243500 Na
   0.0758854374289513    0.9471864104270934    0.6590222716331482 Na
   0.0750077515840530    0.4374907016754150    0.0932261720299721 Na
   0.0769903510808945    0.7419771552085875    0.9178975224494934 Na
   0.0742403417825699    0.7443152070045470    0.5207691192626953 Na
   0.0741408988833427    0.9012286663055420    0.3382118940353394 Na
   0.0739975124597549    0.2848010659217834    0.5219975113868713 Na
   0.0730217248201370    0.5993466973304747    0.2461598962545395 Na
   0.0720199123024940    0.5197784304618835    0.4274541139602661 Na
   0.0759393423795700    0.9913313984870910    0.1484750211238861 Na
   0.0772054865956306    0.0268030464649200    0.9185430407524109 Zn
   0.5779377818107605    0.4625369310379028    0.7440010309219360 Zn
   0.5725491046905518    0.5030969977378844    0.3360375761985779 Sn
   0.5739213228225708    0.8993886709213256    0.5127962231636047 Sn
   0.5750545859336853    0.7234278917312622    0.3878810703754425 Sb
   0.0762003064155579    0.3995096683502197    0.6769108176231384 Sb
   0.5773184895515442    0.6214024424552917    0.8497349619865417 Sb
   0.0736365765333176    0.0195711795240641    0.5064854025840759 Sb
   0.0753486230969429    0.7194669246673583    0.0804102495312691 Sb
   0.5727456212043762    0.3595699965953827    0.4330950677394867 Sb
   0.0758950635790825    0.1806878149509430    0.0264070648699999 Sb
   0.0765913277864456    0.1058979481458664    0.7985370755195618 Sb
   0.5761069655418396    0.7934645414352416    0.6288295388221741 Sb
   0.5761421918869019    0.0387836694717407    0.2346485108137131 Sb
   0.5738342404365540    0.4559869468212128    0.1928290575742722 Sb
