Na7 Ag1 Cl8
1.0
   6.8546562194824219    0.0000000000000000    3.9634141921997070
   2.2798566333903816    6.4571494326028640    3.9626607894897456
   0.0000000000000000    0.0000000000000000    7.9143095016479492
Na Ag Cl
7 1 8
direct
   0.9251163601875305    0.2255823016166687    0.1579015254974365 Na
   0.4239392578601837    0.7260454297065736    0.1573489010334015 Na
   0.4249061942100525    0.2257907688617707    0.1591689139604568 Na
   0.9245514273643494    0.7241544723510742    0.1571900844573975 Na
   0.4249882102012634    0.2253615409135819    0.6586363911628723 Na
   0.9245624542236328    0.2260437607765198    0.6580219864845276 Na
   0.9250872731208801    0.7252233028411865    0.6584942936897278 Na
   0.4252049624919891    0.7243878841400148    0.6587989330291747 Ag
   0.1745719164609909    0.4754806160926819    0.9076324701309203 Cl
   0.6748218536376953    0.4749375879764557    0.4072997570037840 Cl
   0.6757026910781860    0.4749923348426819    0.9085973501205443 Cl
   0.6752598285675049    0.9750662446022034    0.9087212085723876 Cl
   0.1744121611118316    0.4753348529338837    0.4079985916614532 Cl
   0.6749565005302429    0.9746902585029603    0.4085725545883179 Cl
   0.1740436702966690    0.9751572608947754    0.4082179963588715 Cl
   0.1744769960641861    0.9760072827339172    0.9084202647209166 Cl
