Na12 Sn2 O10
1.0
   5.7844104766845712    0.0000000000000000   -0.8951257467269900
   0.5704772773064297    6.7728551090847908    0.2589564025402062
   0.0000000000000000    0.0000000000000000    8.9992046356201172
Na Sn O
12 2 10
direct
   0.0447962395846844    0.0486952066421509    0.7551522850990295 Na
   0.5756450891494751    0.3308357596397400    0.7395326495170593 Na
   0.5735509395599366    0.7867938876152037    0.8629341125488281 Na
   0.4222161471843719    0.7231109738349913    0.5622524619102478 Na
   0.7012626528739929    0.0135195711627603    0.4879828989505768 Na
   0.9489806890487671    0.0963860824704170    0.0558112040162086 Na
   0.1073213368654251    0.7211486697196960    0.2929936349391937 Na
   0.1107313781976700    0.7081604599952698    0.9662842154502869 Na
   0.5163901448249817    0.3893640041351318    0.3649237751960754 Na
   0.0616253949701786    0.2079850286245346    0.3923989236354828 Na
   0.3225525319576263    0.3456402719020844    0.0092642884701490 Na
   0.7545846104621887    0.4773234426975250    0.0974414870142937 Na
   0.0163779109716416    0.4967600703239440    0.6730921864509583 Sn
   0.5209146738052368    0.9119899272918700    0.1721911579370499 Sn
   0.9328503012657166    0.3840337991714477    0.8826385736465454 O
   0.3185027539730073    0.5669650435447693    0.7918511629104614 O
   0.3549067974090576    0.9628236293792723    0.3554092049598694 O
   0.8193355798721313    0.7632400393486023    0.6687651276588440 O
   0.6892477869987488    0.1682368665933609    0.2165495306253433 O
   0.3069056272506714    0.0091969920322299    0.9780216813087463 O
   0.4189607799053192    0.6279027462005615    0.1685685813426971 O
   0.8302020430564880    0.2820261418819427    0.5814073085784912 O
   0.1875360608100891    0.4887766540050507    0.4840536415576935 O
   0.8119152188301086    0.8026239871978760    0.0922821313142777 O
