Generated by VASPKIT code
 1.000000
    6.5118304438426486    0.1500329346516693    0.5493980790878794
    0.4911467665664739    7.0209388599765594    3.0051957424231155
    0.5241595279454462   -0.2050958298758940    8.3399612411533752
   Cs   V    O 
     4     3    10
Direct
    0.9820001926757729    0.5113229611367980    0.9084810541894213    Cs001
    0.3725411543456705    0.2544286972979021    0.6161939167402534    Cs002
    0.9545435759480134    0.0671120080914899    0.3611388357052104    Cs003
    0.4091130058270982    0.7266108067039487    0.1824128253630359    Cs004
    0.8583527329129328    0.5379181379243210    0.4619588612585090     V001
    0.5065282740033104    0.7227878174857745    0.7143467348406632     V002
    0.4680368161808237    0.2603125385563795    0.0615779684926383     V003
    0.8529592798345325    0.5609390832251051    0.2536222862511295     O001
    0.6162534977956649    0.6651593357649825    0.5285487719772406     O002
    0.4774875995713945    0.5063596132881683    0.8964121435112052     O003
    0.2756710539390030    0.8422514248358977    0.6900441662502003     O004
    0.0691227118624080    0.6321517572938249    0.4810106319774158     O005
    0.8654599842076527    0.3047069527634793    0.5944851008881378     O006
    0.2836974347654844    0.1520373694808851    0.0162594900171655     O007
    0.4007348066034550    0.2758199957499811    0.2577698714831981     O008
    0.7044400489645588    0.1418373217834769    0.0521764209727217     O009
    0.6683541691086452    0.8528401558659345    0.7563305338009538     O010
