Cs3 Na10 Ti1 Re3 Mo1 O21
1.0
   6.3341388702392578    0.0000000000000000    0.2574156820774068
  -0.8841391622895145    8.9847269459674735    1.1443794965744016
   0.0000000000000000    0.0000000000000000   13.0735893249511719
Cs Na Ti Re Mo O
3 10 1 3 1 21
direct
   0.9211550951004028    0.9189911484718323    0.2933574914932251 Cs
   0.7682769298553467    0.6716376543045044    0.6999224424362182 Cs
   0.7156547307968140    0.1105241999030113    0.8225379586219786 Cs
   0.5112870335578918    0.5337455272674561    0.3181321918964385 Na
   0.7325518131256104    0.1284269690513611    0.5390367507934570 Na
   0.2432755678892136    0.0536286793649197    0.0107136145234108 Na
   0.0424840040504932    0.3794882893562317    0.2330216318368911 Na
   0.1953708082437515    0.7498482465744019    0.8999232649803161 Na
   0.2625470459461212    0.7388051152229310    0.1463742852210999 Na
   0.2249988764524460    0.4062681496143341    0.6791227459907531 Na
   0.7426148056983948    0.3815765678882599    0.0344355218112469 Na
   0.2061808258295059    0.2511280477046967    0.4758817255496978 Na
   0.3825868070125580    0.8044750094413757    0.4918461740016937 Na
   0.9686908721923828    0.5509868264198303    0.4332101047039031 Ti
   0.7204472422599792    0.7579485774040222    0.0352195873856544 Re
   0.2380132228136063    0.0416732132434845    0.6549119353294371 Re
   0.2298402637243271    0.4020339250564575    0.9484655857086181 Re
   0.4920821785926819    0.1425660550594330    0.2689916789531708 Mo
   0.5073252916336060    0.8627334833145142    0.9857441782951354 O
   0.4708336293697357    0.9195042252540588    0.6428814530372621 O
   0.0985336303710938    0.9680046439170837    0.5469889044761658 O
   0.7371543645858765    0.2300315499305725    0.1974657326936722 O
   0.1902112662792206    0.5088108777999878    0.0557914897799492 O
   0.0232216678559780    0.1839226484298706    0.6526958942413329 O
   0.9761391282081604    0.8628902435302735    0.0461673252284527 O
   0.1376121044158936    0.6231839656829834    0.3189341127872466 O
   0.2469945251941681    0.5245799422264099    0.8290103077888488 O
   0.4343867003917694    0.2114102691411972    0.6366597414016723 O
   0.8830465078353882    0.3563788533210754    0.4222470819950103 O
   0.7301295995712280    0.6478445529937744    0.4396430850028991 O
   0.1538189798593521    0.9548680782318116    0.7883659601211547 O
   0.4516876041889191    0.2924410402774811    0.9570509791374205 O
   0.5566139817237854    0.0294487103819847    0.3870954513549804 O
   0.1370112150907516    0.5743225216865540    0.5414767861366272 O
   0.6329603791236877    0.6660854220390320    0.1613125652074814 O
   0.7687665224075317    0.6295612454414368    0.9462121725082396 O
   0.3476783633232117    0.0150243900716305    0.1883756369352340 O
   0.0101806102320552    0.2635546922683716    0.9565765857696532 O
   0.3368147909641266    0.2872721552848816    0.3051791191101074 O
