Na2 Cu4 P2 H12 C1 S1 O22                
   1.00000000000000     
     5.1910067579026844    0.1633802901521660    0.7118467372575379
    -0.4542648094046158    7.6738519574637305    0.8849265779422691
     0.5420899094717621    0.2086768903027899   12.1044975458243727
   Na   Cu   P    H    C    S    O 
     2     4     2    12     1     1    22
Direct
 -0.0252572704710519  0.5496737869565782  0.6827740464628999
  0.0565414178542281  0.4863828150952459  0.1229241483601936
  0.8949486334460673  0.5082226904720821  0.3801078029127161
  0.4379282825940905  0.6915490134683517  0.3382463398366359
  0.5222923771857952  0.8635985373022502  0.9680423691630474
  0.5613398171828545  0.2708090660082084  0.6072438045742273
  0.4674300788773388  0.2911089652846194  0.3496136034611139
  0.2791998459991580  0.0714637417979731  0.1878695436501251
  0.7274774978477824  0.2128403911217933  0.7812243913666606
  0.2740835774362604  0.1089099503776867  0.7733290141365827
  0.6470965791250742  0.5081241191042144  0.9959435806909912
  0.0314510823458500  0.7602544829948487  0.4708012017150313
  0.2644836954221893  0.0144063237762377  0.6631293673366249
  0.6400541984384562  0.3111931254548301  0.0344834455235176
  0.0399606896433316  0.4153869636315425  0.9007563623398821
  0.3151578247413954  0.6133487911225178  0.9211808558900391
  0.8859250989106668  0.1170093238116634  0.2724213515486414
  0.8692490384542065  0.7815230869440849  0.2624122067346208
  0.3250055308591667  0.3938309735477092  0.8246701300759373
  0.0308893694330863  0.2961638760669383  0.5237697110998797
  0.9752126070029675  0.9385845376531418  0.9395565115933260
  0.4917863603635582  0.7513296163406120  0.5704832680512303
  0.7667516879515429  0.3123259742803409  0.3138791727561837
  0.3862444668684438  0.6399148404140267  0.9883021660328329
  0.4088519064760438  0.9044722781447726  0.1619135894044037
  0.3838122128306126  0.1239879807239155  0.3002911068339033
  0.4209120236519968  0.5644371689414591  0.5764106271787693
  0.8814549366261899  0.3741195350110423  0.5249454173114639
  0.0911075158794498  0.7017025955240271  0.4036839551120453
  0.3306215248870365  0.4514742414910211  0.3006971820030490
  0.2606104158200017  0.1351757629194104  0.6925100619546408
  0.3083575771062152  0.2289875912341153  0.1001752053656476
  0.6534509848139014  0.3143705221114390  0.7423006260751790
  0.1792112383572985  0.4723736626170057  0.8388647204909536
  0.9815926997672785  0.0194143165024623  0.2395921214267625
  0.8729795915541466  0.7865600291993701 -0.0153998813445909
  0.7845236345323188  0.6653131409729652  0.2636251538921006
  0.8024322718093166  0.0496289039677566  0.9142425232399546
  0.5411754745392990  0.8333728403952219  0.4454225210327984
  0.3868583996724114  0.2475699184768640  0.4787856319582791
  0.7336855201130029  0.7832452792696154  0.6117939336141284
  0.2194832747359216  0.9803548420459846  0.9183320184619832
  0.7663177568997428  0.4103711932537668  0.0086315327153275
  0.2660482425999505  0.8351968118290283  0.6330956906045554
 
  0.00000000E+00  0.00000000E+00  0.00000000E+00
  0.00000000E+00  0.00000000E+00  0.00000000E+00
  0.00000000E+00  0.00000000E+00  0.00000000E+00
  0.00000000E+00  0.00000000E+00  0.00000000E+00
  0.00000000E+00  0.00000000E+00  0.00000000E+00
  0.00000000E+00  0.00000000E+00  0.00000000E+00
  0.00000000E+00  0.00000000E+00  0.00000000E+00
  0.00000000E+00  0.00000000E+00  0.00000000E+00
  0.00000000E+00  0.00000000E+00  0.00000000E+00
  0.00000000E+00  0.00000000E+00  0.00000000E+00
  0.00000000E+00  0.00000000E+00  0.00000000E+00
  0.00000000E+00  0.00000000E+00  0.00000000E+00
  0.00000000E+00  0.00000000E+00  0.00000000E+00
  0.00000000E+00  0.00000000E+00  0.00000000E+00
  0.00000000E+00  0.00000000E+00  0.00000000E+00
  0.00000000E+00  0.00000000E+00  0.00000000E+00
  0.00000000E+00  0.00000000E+00  0.00000000E+00
  0.00000000E+00  0.00000000E+00  0.00000000E+00
  0.00000000E+00  0.00000000E+00  0.00000000E+00
  0.00000000E+00  0.00000000E+00  0.00000000E+00
  0.00000000E+00  0.00000000E+00  0.00000000E+00
  0.00000000E+00  0.00000000E+00  0.00000000E+00
  0.00000000E+00  0.00000000E+00  0.00000000E+00
  0.00000000E+00  0.00000000E+00  0.00000000E+00
  0.00000000E+00  0.00000000E+00  0.00000000E+00
  0.00000000E+00  0.00000000E+00  0.00000000E+00
  0.00000000E+00  0.00000000E+00  0.00000000E+00
  0.00000000E+00  0.00000000E+00  0.00000000E+00
  0.00000000E+00  0.00000000E+00  0.00000000E+00
  0.00000000E+00  0.00000000E+00  0.00000000E+00
  0.00000000E+00  0.00000000E+00  0.00000000E+00
  0.00000000E+00  0.00000000E+00  0.00000000E+00
  0.00000000E+00  0.00000000E+00  0.00000000E+00
  0.00000000E+00  0.00000000E+00  0.00000000E+00
  0.00000000E+00  0.00000000E+00  0.00000000E+00
  0.00000000E+00  0.00000000E+00  0.00000000E+00
  0.00000000E+00  0.00000000E+00  0.00000000E+00
  0.00000000E+00  0.00000000E+00  0.00000000E+00
  0.00000000E+00  0.00000000E+00  0.00000000E+00
  0.00000000E+00  0.00000000E+00  0.00000000E+00
  0.00000000E+00  0.00000000E+00  0.00000000E+00
  0.00000000E+00  0.00000000E+00  0.00000000E+00
  0.00000000E+00  0.00000000E+00  0.00000000E+00
  0.00000000E+00  0.00000000E+00  0.00000000E+00
