Na11 Zn1 O6
1.0
   5.6550683975219735    0.0000000000000000   -0.2574101686477656
  -2.5680557256945904    5.8667257843527851   -1.7335931062698362
   0.0000000000000000    0.0000000000000000    8.0229444503784180
Na Zn O
11 1 6
direct
   0.9256637096405028    0.1461540758609772    0.4465380311012268 Na
   0.0606997273862362    0.1900949925184250    0.8211409449577330 Na
   0.2206259071826935    0.5617007613182068    0.6709865927696228 Na
   0.7679542899131775    0.6340929865837097    0.2322023957967758 Na
   0.7550935149192810    0.6174254417419434    0.6337035298347473 Na
   0.2325061261653900    0.5481482744216919    0.1657188236713409 Na
   0.3544025719165802    0.8784841895103455    0.4950343072414398 Na
   0.2687068581581116    0.8940430283546449    0.9986846446990967 Na
   0.6518309712409973    0.7174826860427856    0.9576679468154907 Na
   0.7902057170867920    0.1934515684843063    0.1175549402832985 Na
   0.4759478867053985    0.2358743399381638    0.3386844992637634 Na
   0.5781515836715698    0.2428126931190491    0.8173760175704956 Zn
   0.4077252447605133    0.2819291353225708    0.0501300543546676 O
   0.3516909778118134    0.2588131129741669    0.6150459647178650 O
   0.9732455611228942    0.5019947886466980    0.4024060368537903 O
   0.6108164787292480    0.9230596423149109    0.7705667018890381 O
   0.9344279170036315    0.5222238898277283    0.8955501317977905 O
   0.5791161656379700    0.9002398252487183    0.2365806996822357 O
