Generated by VASPKIT code
 1.000000
    5.1433478217675850   -0.0730442700186567   -1.9909681066074774
   -3.1010506478750757    4.5536960940843789    0.0959718684881834
    0.0065331730729128   -0.0150697959669369    7.3415903949767376
   Cu   Ag   As
     2     1     2
Direct
    0.5614752073822620    0.7933852620133667    0.7888755742562489    Cu001
    0.0605305882045262    0.2931709311078916    0.7880014799581951    Cu002
    0.5601727209627034    0.2930032378685055    0.7875562557853311    Ag001
    0.5597656282164188    0.5738186987586392    0.0691665147137281    As001
    0.5605972082370567    0.0101086505807773    0.5071769367833149    As002
