Na2 Ag1 Au2 S4                          
   1.00000000000000     
     3.9225029448753368    0.2155111824351821   -0.1594015074638787
     0.7561880949027775    6.8238961487839553    0.8739087547705134
    -0.0348469570345285    0.2486742678377312    7.8517501696444949
   Na   Ag   Au   S 
     2     1     2     4
Direct
  0.5028100203616450  0.0987351822102236  0.0171054270576164
  0.5566179670048718  0.8774592136537772  0.5340029815138015
  0.9861623077692140  0.2746872725463601  0.5827387664841718
  0.8836782974211238  0.4715873722391380  0.2252404263236701
  0.3538812123295671  0.6245758725323159  0.9029659702399895
  0.4423848388789067  0.4573070954526151  0.6737053018391448
  0.0398548458043588  0.9587945990368107  0.7976612385632711
  0.9770673994404508  0.1252587910791968  0.3076410310267206
  0.3226041139596031  0.6833320247887242  0.1864241635126070
 
  0.00000000E+00  0.00000000E+00  0.00000000E+00
  0.00000000E+00  0.00000000E+00  0.00000000E+00
  0.00000000E+00  0.00000000E+00  0.00000000E+00
  0.00000000E+00  0.00000000E+00  0.00000000E+00
  0.00000000E+00  0.00000000E+00  0.00000000E+00
  0.00000000E+00  0.00000000E+00  0.00000000E+00
  0.00000000E+00  0.00000000E+00  0.00000000E+00
  0.00000000E+00  0.00000000E+00  0.00000000E+00
  0.00000000E+00  0.00000000E+00  0.00000000E+00
