Na3 La1 Nb1 Zn1 Si2 P5 S1 O26           
   1.00000000000000     
     8.3183583046946215    0.0892386669117656    3.2175514662371536
     2.5987113574892988    6.9350202460131767    1.6006368106664191
     0.0241707857083070   -0.0006672469937154   10.5972103284898989
   Na   La   Nb   Zn   Si   P    S    O 
     3     1     1     1     2     5     1    26
Direct
  0.6089326700339531  0.8318237499189114  0.2796747953403880
  0.5078168930571478  0.9167705530789303  0.6744049666268003
  0.0557319386588925  0.1221606040421473  0.8431606965379025
  0.3637373679079148  0.3828634940108839  0.4093291453183441
  0.8574527775103539  0.0429792040340870  0.4225894806328249
  0.4139925327179348  0.0033640167639131  0.0051381000476585
  0.6738718504384827  0.3396872192640883  0.7006049931384617
  0.0321920719860753  0.6652383040465868  0.9765615994174560
  0.3061840745187868  0.3518980014258132  0.7908268113923224
  0.8575757150490946  0.6023445852561744  0.5217641645080220
  0.2470696954291217  0.9212912884418319  0.4989623891850324
  0.1882200545213762  0.7394891759785984  0.1695150503295179
  0.7200202511287606  0.0011219316525673  0.9091698849265314
  0.8294277670947258  0.3858358254075639  0.1628744569290987
  0.9161969251986316  0.5630722168754808  0.1041564093812188
  0.2387335342777064  0.9301786414133911  0.6588626533424050
  0.7619605000041786  0.1868340217137264  0.8210196664304651
  0.0151514841706519  0.8642832126830187  0.2638599359480908
  0.6480645631468259  0.4974014294578273  0.2244655202017583
  0.1513491631484216  0.7417471346616258  0.0249871683793434
  0.9226536326113897  0.2720751779610227  0.2609058173034338
  0.8188067063250386  0.8186189510621004  0.5539153851957384
  0.1400034597520780  0.5392470089028975  0.8391718324217962
  0.7223997914906872  0.5360318109179273  0.6727945859147565
  0.3226744953155199  0.8316738758973430  0.1321991956461470
  0.7883860405638877  0.6125551078969060  0.4107419104073173
  0.3295962522396256  0.3005790986791860  0.6528818293670141
  0.0382742681735509  0.4682510316568622  0.5238593204817803
  0.4596996273472890  0.4085824313965675  0.7918050647098153
  0.2572214452620610  0.5278650712794061  0.2186140508764197
  0.6026297407298202  0.0453102750978180  0.0554691778431154
  0.8684831962705902  0.2873866866092812  0.0458505914392305
  0.2728703061621267  0.1895868895362428  0.9004945988310740
  0.6605314320918609  0.1148814259146952  0.3753128957115978
  0.3493044052731338  0.0569127176700008  0.4069926924758288
  0.9082437518257892  0.8681716429356525  0.9136777248673402
  0.7211079464498846  0.2288238012585126  0.5708212078644302
  0.0610742392520122  0.0051224316261363  0.4828101617683073
  0.3372411515356326  0.7055103483173499  0.4616775545041465
  0.6455668580963105  0.9123735860364240  0.8404641784702621
 
  0.00000000E+00  0.00000000E+00  0.00000000E+00
  0.00000000E+00  0.00000000E+00  0.00000000E+00
  0.00000000E+00  0.00000000E+00  0.00000000E+00
  0.00000000E+00  0.00000000E+00  0.00000000E+00
  0.00000000E+00  0.00000000E+00  0.00000000E+00
  0.00000000E+00  0.00000000E+00  0.00000000E+00
  0.00000000E+00  0.00000000E+00  0.00000000E+00
  0.00000000E+00  0.00000000E+00  0.00000000E+00
  0.00000000E+00  0.00000000E+00  0.00000000E+00
  0.00000000E+00  0.00000000E+00  0.00000000E+00
  0.00000000E+00  0.00000000E+00  0.00000000E+00
  0.00000000E+00  0.00000000E+00  0.00000000E+00
  0.00000000E+00  0.00000000E+00  0.00000000E+00
  0.00000000E+00  0.00000000E+00  0.00000000E+00
  0.00000000E+00  0.00000000E+00  0.00000000E+00
  0.00000000E+00  0.00000000E+00  0.00000000E+00
  0.00000000E+00  0.00000000E+00  0.00000000E+00
  0.00000000E+00  0.00000000E+00  0.00000000E+00
  0.00000000E+00  0.00000000E+00  0.00000000E+00
  0.00000000E+00  0.00000000E+00  0.00000000E+00
  0.00000000E+00  0.00000000E+00  0.00000000E+00
  0.00000000E+00  0.00000000E+00  0.00000000E+00
  0.00000000E+00  0.00000000E+00  0.00000000E+00
  0.00000000E+00  0.00000000E+00  0.00000000E+00
  0.00000000E+00  0.00000000E+00  0.00000000E+00
  0.00000000E+00  0.00000000E+00  0.00000000E+00
  0.00000000E+00  0.00000000E+00  0.00000000E+00
  0.00000000E+00  0.00000000E+00  0.00000000E+00
  0.00000000E+00  0.00000000E+00  0.00000000E+00
  0.00000000E+00  0.00000000E+00  0.00000000E+00
  0.00000000E+00  0.00000000E+00  0.00000000E+00
  0.00000000E+00  0.00000000E+00  0.00000000E+00
  0.00000000E+00  0.00000000E+00  0.00000000E+00
  0.00000000E+00  0.00000000E+00  0.00000000E+00
  0.00000000E+00  0.00000000E+00  0.00000000E+00
  0.00000000E+00  0.00000000E+00  0.00000000E+00
  0.00000000E+00  0.00000000E+00  0.00000000E+00
  0.00000000E+00  0.00000000E+00  0.00000000E+00
  0.00000000E+00  0.00000000E+00  0.00000000E+00
  0.00000000E+00  0.00000000E+00  0.00000000E+00
