Cs5 Ti3 F14
1.0
   6.2781162261962891    0.0000000000000000    1.6241644620895381
   2.9557693195538524    5.5673347106759383    1.6299756765365598
   0.0000000000000000    0.0000000000000000   13.1854438781738281
Cs Ti F
5 3 14
direct
   0.2478049546480179    0.4196832776069641    0.9078032970428468 Cs
   0.1233467236161232    0.2990089952945709    0.2758935093879700 Cs
   0.6395098567008973    0.8101847767829894    0.7320988774299623 Cs
   0.5151908993721008    0.6889663934707642    0.1020265519618988 Cs
   0.3813869357109070    0.5545446872711182    0.5048666596412659 Cs
   0.8817760348320007    0.0541051551699638    0.0050582340918481 Ti
   0.9579132199287415    0.1295200735330582    0.7752352952957154 Ti
   0.8037314414978027    0.9795106649398804    0.2356551289558411 Ti
   0.6302301883697510    0.2622946202754974    0.2967446446418762 F
   0.5766372084617615    0.1576591134071350    0.1053269132971764 F
   0.0867672115564346    0.8059303760528564    0.2970929443836212 F
   0.1311282962560653    0.3022197484970093    0.7119536399841310 F
   0.6314787864685059    0.8078677058219910    0.2975248992443085 F
   0.7789887785911560    0.3595157861709595    0.9046110510826112 F
   0.1313309073448181    0.8476350903511047    0.7125540971755983 F
   0.6750547289848328    0.3027822971343994    0.7127773761749269 F
   0.1875116080045700    0.9512026906013488    0.9052128791809083 F
   0.0429333113133907    0.2160220444202423    0.5095010399818420 F
   0.7810079455375671    0.9519482851028442    0.9048500657081605 F
   0.9822840094566345    0.1562824398279190    0.1046731323003769 F
   0.7197735309600831    0.8931609392166137    0.4972328245639802 F
   0.9837576746940613    0.7484915852546692    0.1043802052736282 F
