Na3 Gd1 Sn1
1.0
   4.0840721130371094    0.0000000000000000    3.4235174655914311
   0.6011997116027245    4.0439767555012098    3.4198954105377197
   0.0000000000000000    0.0000000000000000    8.2670783996582031
Na Gd Sn
3 1 1
direct
   0.3034184873104095    0.1159435510635376    0.8818077445030212 Na
   0.5018994808197021    0.3140919804573059    0.0834440365433693 Na
   0.1130977720022202    0.9259822368621826    0.6679117679595947 Na
   0.9159382581710815    0.7294941544532776    0.4621309041976929 Gd
   0.7017176151275635    0.5152490139007568    0.2837185263633728 Sn
