Na4 Ni2 O6                              
   1.00000000000000     
     2.6465153185288135   -0.0002502196078567   -1.3884775678804566
    -0.2287433440846706    7.6617092778568905   -0.4309612335941462
     0.0028881051800563    0.0076534275154569    6.3992647107898026
   Na   Ni   O 
     4     2     6
Direct
  0.2842675091238222  0.3963784942566081  0.3275271570099733
  0.9315485026503318  0.7060107538128397  0.4813685330325209
  0.6072318246982643  0.0358375557982267  0.6531670727737039
  0.6109850469506082  0.0645423862270544  0.1570966510520869
  0.2787014456056040  0.3901536264714095  0.8220481516531076
  0.9395075523963137  0.7118990798855920  0.9871122433563106
  0.9053874612622750  0.2626928570810581  0.9526426088832661
  0.6693871446438315  0.5361727976133956  0.7154598179393175
  0.5460361015816304  0.5652262839850293  0.0927436262018850
  0.2214223199850140  0.8552536066191221  0.2680064349932654
  0.9959272880938751  0.2465883399018578  0.5416544502408189
  0.3113454976199800  0.8388194378001880  0.8567227746079957
 
  0.00000000E+00  0.00000000E+00  0.00000000E+00
  0.00000000E+00  0.00000000E+00  0.00000000E+00
  0.00000000E+00  0.00000000E+00  0.00000000E+00
  0.00000000E+00  0.00000000E+00  0.00000000E+00
  0.00000000E+00  0.00000000E+00  0.00000000E+00
  0.00000000E+00  0.00000000E+00  0.00000000E+00
  0.00000000E+00  0.00000000E+00  0.00000000E+00
  0.00000000E+00  0.00000000E+00  0.00000000E+00
  0.00000000E+00  0.00000000E+00  0.00000000E+00
  0.00000000E+00  0.00000000E+00  0.00000000E+00
  0.00000000E+00  0.00000000E+00  0.00000000E+00
  0.00000000E+00  0.00000000E+00  0.00000000E+00
