Na1 Tl2 Re1 O5
1.0
   5.1041374206542978    0.0000000000000000    2.7866373062133785
   1.5163249504661276    4.9505832739215343    3.1937866210937496
   0.0000000000000000    0.0000000000000000    6.0414800643920898
Na Tl Re O
1 2 1 5
direct
   0.4384245276451111    0.1265896558761597    0.9875460267066954 Na
   0.6308113336563110    0.4347321987152100    0.2925570607185364 Tl
   0.1426826417446136    0.9224320054054259    0.7813573479652405 Tl
   0.9192661046981812    0.6462407112121582    0.5046503543853761 Re
   0.7177168726921082    0.8471689820289611    0.7092232704162598 O
   0.7424474358558655    0.3756345808506012    0.6741131544113159 O
   0.1940393447875977    0.8176955580711365    0.2359286695718766 O
   0.1950392723083496    0.3756723403930664    0.6773425340652466 O
   0.7416047453880310    0.8140150904655457    0.2363802194595337 O
