Na1 Sr1 Zr1 Nb1 O6                      
   1.00000000000000     
     5.0239725112915039    0.0000000000000000    2.9072968959808345
     1.6727254272240075    4.7362239061637270    2.9080381393432617
     0.0000000000000000    0.0000000000000000    5.8031830787658691
   Na   Sr   Zr   Nb   O 
     1     1     1     1     6
Direct
  0.4181226366069566  0.2070268149522804  0.1601388283850816
  0.9181297242689487  0.7065371280682883  0.6600747871667479
  0.1680972551000780  0.9568135010701960  0.9101249090423688
  0.6679903004069468  0.4568216526613490  0.4099926058148586
  0.4234837841971182  0.7011803094573276  0.6546895761162534
  0.9126667025067098  0.7014110722277729  0.1651416381962847
  0.4234748310700409  0.2120252019558720  0.6548806104283125
  0.4236343951420407  0.7017850962334359  0.1655657097241500
  0.9126263661166909  0.2122906291032898  0.6546230651911399
  0.9127212487517971  0.2123040564970557  0.1655569824363285
 
  0.00000000E+00  0.00000000E+00  0.00000000E+00
  0.00000000E+00  0.00000000E+00  0.00000000E+00
  0.00000000E+00  0.00000000E+00  0.00000000E+00
  0.00000000E+00  0.00000000E+00  0.00000000E+00
  0.00000000E+00  0.00000000E+00  0.00000000E+00
  0.00000000E+00  0.00000000E+00  0.00000000E+00
  0.00000000E+00  0.00000000E+00  0.00000000E+00
  0.00000000E+00  0.00000000E+00  0.00000000E+00
  0.00000000E+00  0.00000000E+00  0.00000000E+00
  0.00000000E+00  0.00000000E+00  0.00000000E+00
