Na1 Cu1 H2 O2
1.0
   3.4800622463226323    0.0000000000000000    0.1113668605685233
   1.3861243949776272    4.0021273825083501   -0.1991452574729922
   0.0000000000000000    0.0000000000000000    6.2655382156372070
Na Cu H O
1 1 2 2
direct
   0.9934633970260621    0.7687662243843079    0.8000107407569885 Na
   0.4944357872009277    0.7696061134338380    0.3004951477050781 Cu
   0.6764353513717651    0.3618541061878205    0.5494895577430725 H
   0.3058161437511444    0.1790497899055481    0.0487080477178097 H
   0.5648365020751954    0.6108011007308960    0.5735136866569519 O
   0.4194902479648590    0.9272983074188232    0.0293658617883921 O
