Generated by VASPKIT code
 1.000000
    4.2585813867768243   -0.0031900785183328    0.8015938956428712
   -0.2878131972961283    5.5365798784970126    1.5268833674094753
   -0.0074546632700251   -0.2512689958717200   11.6713019175537642
   Li   Hg   Br
     1     1     5
Direct
    0.8129440708784295    0.6974327759706679    0.0956049305945872    Li001
    0.1907105283280655    0.0840233447360375    0.3307887897659333    Hg001
    0.1828862155297895    0.5835298572901686    0.3322203750248963    Br001
    0.5715540949942560    0.9664820124738315    0.5638755928019605    Br002
    0.9875425061721016    0.3816305922032380    0.7386214135776743    Br003
    0.7935378486353164    0.1951226565596877    0.1108618278027104    Br004
    0.3790841000500433    0.7729542803005317    0.9524318896534308    Br005
