Na2 Ti1 Si3 O9                          
   1.00000000000000     
     5.3094928563954786    0.0010973106701262    0.5003899108507779
    -0.9967302026456656    5.6405106055846357   -1.4104904529714957
    -0.0541786647680344   -0.1054242524273762    8.6453411015354114
   Na   Ti   Si   O 
     2     1     3     9
Direct
  0.0536257513075172  0.1701479316906404  0.5119431885096862
  0.6883602512014722  0.9238330896205023  0.0953939903536341
  0.2467437063849423  0.7907247015356641  0.8664152312564736
  0.8396233456299896  0.6769716236567974  0.6857500015999963
  0.1796181768949498  0.3775668812182366  0.1274037441853091
  0.6647504999715371  0.5156556915416743  0.3384890551678094
  0.1805858853334948  0.0935856534908648  0.0123638712550831
  0.1055081559667352  0.8726349772337219  0.6682514471979617
  0.3520853108513326  0.3927728996924714  0.2919437790444755
  0.7091128125274991  0.4733370314583154  0.5224756192753669
  0.7500421274291771  0.8573310750606555  0.3460678655810646
  0.9562182456256696  0.5197607588529266  0.7913503372843852
  0.6044578975353891  0.8182582226388566  0.7965766826924798
  0.2886283557566671  0.6073025218481216  0.0434988829465131
  0.8645762418834962  0.3652707261065122  0.1997425441332844
 
  0.00000000E+00  0.00000000E+00  0.00000000E+00
  0.00000000E+00  0.00000000E+00  0.00000000E+00
  0.00000000E+00  0.00000000E+00  0.00000000E+00
  0.00000000E+00  0.00000000E+00  0.00000000E+00
  0.00000000E+00  0.00000000E+00  0.00000000E+00
  0.00000000E+00  0.00000000E+00  0.00000000E+00
  0.00000000E+00  0.00000000E+00  0.00000000E+00
  0.00000000E+00  0.00000000E+00  0.00000000E+00
  0.00000000E+00  0.00000000E+00  0.00000000E+00
  0.00000000E+00  0.00000000E+00  0.00000000E+00
  0.00000000E+00  0.00000000E+00  0.00000000E+00
  0.00000000E+00  0.00000000E+00  0.00000000E+00
  0.00000000E+00  0.00000000E+00  0.00000000E+00
  0.00000000E+00  0.00000000E+00  0.00000000E+00
  0.00000000E+00  0.00000000E+00  0.00000000E+00
