Na1 Nd1 Hf2 O6
1.0
   4.1098403930664054    0.0000000000000000    0.0115857422351838
   0.0037181369708895    4.1211006557815324    0.0007495034951713
   0.0000000000000000    0.0000000000000000    8.2560548782348633
Na Nd Hf O
1 1 2 6
direct
   0.6894903182983398    0.6829727292060852    0.9791217446327209 Na
   0.6887235641479492    0.6829526424407959    0.4787084460258484 Nd
   0.1886496543884277    0.1829983592033386    0.7322167158126831 Hf
   0.1893334686756134    0.1827618330717087    0.2255391925573349 Hf
   0.1892847567796707    0.1832909882068634    0.9789123535156250 O
   0.6888557672500610    0.1837332695722580    0.2595470249652863 O
   0.1890826523303986    0.6845117807388307    0.2598976194858551 O
   0.1891285181045532    0.1838520467281342    0.4783743619918823 O
   0.1892784684896469    0.6832336187362671    0.6983138322830200 O
   0.6897215247154236    0.1838095337152481    0.6981424093246460 O
