Rb1 Na1 Bi2 O4
1.0
   3.4521744251251221    0.0000000000000000   -0.0015684966929264
  -0.0046435863078149    5.4764098507512733    0.0324462465941910
   0.0000000000000000    0.0000000000000000    7.1279530525207520
Rb Na Bi O
1 1 2 4
direct
   0.9489156007766724    0.2723309695720673    0.8332315683364869 Rb
   0.4494861364364624    0.7753759622573853    0.0736771747469902 Na
   0.4489835202693939    0.7798275351524352    0.5727719664573671 Bi
   0.9504933953285217    0.2492918819189072    0.3181919753551484 Bi
   0.4486689865589142    0.1591731756925583    0.5545052886009216 O
   0.9492062330245972    0.8544515371322631    0.3174366652965546 O
   0.9486364722251892    0.7698221206665039    0.7842661738395692 O
   0.4510782659053802    0.2615802288055420    0.1237850040197373 O
