Na3 Sc1 Zn2 O1 F8
1.0
   4.9843988418579102    0.0000000000000000   -2.8829979896545419
   0.0103370845215070    7.0421252676001194    0.0233215838670734
   0.0000000000000000    0.0000000000000000    5.7679138183593750
Na Sc Zn O F
3 1 2 1 8
direct
   0.9701942801475525    0.6672383546829224    0.0421556606888771 Na
   0.3056655228137970    0.9972134232521058    0.7100690603256226 Na
   0.6388983726501465    0.3229417502880097    0.3763729333877563 Na
   0.3153843581676483    0.4904580116271973    0.7146887183189392 Sc
   0.6380615234375000    0.8331704139709474    0.3761988580226898 Zn
   0.9633090496063232    0.1623021215200424    0.0380175486207009 Zn
   0.6358747482299805    0.3305351138114930    0.8754319548606871 O
   0.8052620887756348    0.9925529360771180    0.2124721705913543 F
   0.4685105979442596    0.6639689803123474    0.0405771024525166 F
   0.9753959178924561    0.6605997085571290    0.5436369180679321 F
   0.3030454814434052    0.9966885447502136    0.2081496864557266 F
   0.1405152827501297    0.3306032419204712    0.8758075237274169 F
   0.4687210917472839    0.6634401679039001    0.5411544442176819 F
   0.1396980583667755    0.3299679160118103    0.3797436356544495 F
   0.8064171075820923    0.9939640164375306    0.7103292942047119 F
