Na18 Ti1 Fe1 O12
1.0
   6.3526468276977539    0.0000000000000000   -1.7372285127639771
   0.5044834854904369    6.2650613101899228    1.0511857271194458
   0.0000000000000000    0.0000000000000000   12.5968666076660156
Na Ti Fe O
18 1 1 12
direct
   0.2222999781370163    0.3985681235790253    0.5054618716239929 Na
   0.6383206248283387    0.8800769448280334    0.2621250748634339 Na
   0.9132489562034608    0.8886311054229736    0.8197195529937744 Na
   0.6801387667655946    0.4756256043910980    0.4256049990653992 Na
   0.9333955645561219    0.1326020956039429    0.2040379792451859 Na
   0.6127842068672180    0.0410322025418282    0.9702333807945251 Na
   0.0396011434495449    0.6331112384796143    0.2824091613292694 Na
   0.4021524190902711    0.8376616835594177    0.4241003990173340 Na
   0.2435368448495865    0.1750938594341278    0.7389700412750244 Na
   0.8535948991775514    0.5419235229492188    0.0160315092653036 Na
   0.3720391988754273    0.7987954020500183    0.6448330283164978 Na
   0.1574179828166962    0.8866866230964661    0.1032188236713410 Na
   0.6716015934944154    0.3707855641841888    0.7898290753364563 Na
   0.8881468772888185    0.6343330740928650    0.6401580572128296 Na
   0.6738678812980653    0.1495496034622192    0.6062918305397034 Na
   0.3516199588775635    0.2833715975284576    0.2869017124176025 Na
   0.3541240096092225    0.7453271746635437    0.8658505678176880 Na
   0.5327056646347046    0.5644960403442383    0.1319224834442139 Na
   0.2223799526691437    0.3103432655334473    0.9609110355377197 Ti
   0.9504502415657045    0.9842208623886108    0.4688595533370972 Fe
   0.0277058519423008    0.9773483872413635    0.6298066377639771 O
   0.1320774704217911    0.1323136389255524    0.3917300105094910 O
   0.8079878687858583    0.8123911023139954    0.1235758811235428 O
   0.0270742140710354    0.5108979344367981    0.8541920781135559 O
   0.9659081697463990    0.6876692175865173    0.4496904611587524 O
   0.5441086292266846    0.5177941322326660    0.5934433937072754 O
   0.5736371874809265    0.0006127357482910    0.7746750116348267 O
   0.3857789635658265    0.6532627940177917    0.2701115906238556 O
   0.4961750805377961    0.4065741896629334    0.9642359614372253 O
   0.1604307442903519    0.2811068296432495    0.0987943708896637 O
   0.2167816460132599    0.0398184731602669    0.9244008064270020 O
   0.6620985865592958    0.1037271916866302    0.4049206376075745 O
