Na3 Pt1 O4
1.0
   3.2363803386688232    0.0000000000000000   -0.0027297236956662
  -0.0044584877829675    5.2771134615748068   -1.7621871232986450
   0.0000000000000000    0.0000000000000000    5.5765910148620605
Na Pt O
3 1 4
direct
   0.3069262802600861    0.4562156200408936    0.6523878574371338 Na
   0.8071560859680176    0.9562130570411682    0.6531911492347717 Na
   0.8075909018516541    0.4567271173000336    0.1537024676799774 Na
   0.3078376352787018    0.9553541541099549    0.1523101925849915 Pt
   0.3070285320281982    0.1722039729356766    0.9357429742813110 O
   0.8073200583457947    0.1630606055259705    0.3604927659034729 O
   0.3071195185184479    0.7397788166999817    0.3706570863723755 O
   0.8071210384368896    0.7474152445793152    0.9435109496116638 O
