Na9 Os3 N7
1.0
   6.6862988471984863    0.0000000000000000    0.1578686237335204
   1.2397510258073798    7.8360195337390826    0.4345901906490320
   0.0000000000000000    0.0000000000000000    6.3332166671752930
Na Os N
9 3 7
direct
   0.2729381918907166    0.9885198473930358    0.1287545561790466 Na
   0.8396303653717041    0.4237926006317139    0.5608105659484863 Na
   0.5417893528938293    0.1235907226800918    0.4183719158172607 Na
   0.3773636519908905    0.3598138689994812    0.8306225538253783 Na
   0.9390925765037538    0.8152059912681580    0.3908970952033996 Na
   0.0200691241770983    0.6803056001663207    0.8771217465400695 Na
   0.4421135485172272    0.7444570660591125    0.6263419389724731 Na
   0.9233393669128419    0.3171561062335967    0.0665478706359863 Na
   0.6833657026290894    0.0001751184463501    0.8930079936981200 Na
   0.1039921119809151    0.0687916800379753    0.6857739686965942 Os
   0.5702211856842041    0.6480752229690551    0.1237759441137314 Os
   0.2622208595275879    0.4923279285430908    0.3080753386020660 Os
   0.8675490617752076    0.1015923321247101    0.5761207342147827 N
   0.1656557768583298    0.5542642474174498    0.5654512643814087 N
   0.2745873630046844    0.6806484460830688    0.1232843622565269 N
   0.2754639387130738    0.2877626717090607    0.1933027654886245 N
   0.3618251681327820    0.0505173578858375    0.7420352101325988 N
   0.6124168634414673    0.8434429168701171    0.2392239719629287 N
   0.6937313675880432    0.5490299463272095    0.8912586569786071 N
