Na2 V1 F6
1.0
   5.8379015922546378    0.0000000000000000   -0.0154562480747698
   2.9218025439300850    4.1352042212847930    2.9039769172668461
   0.0000000000000000    0.0000000000000000    5.8242201805114746
Na V F
2 1 6
direct
   0.8145011663436890    0.8430877923965454    0.5850789546966552 Na
   0.0652211755514145    0.3432943522930145    0.3346637189388275 Na
   0.5647051930427551    0.3431622982025146    0.8350709676742554 V
   0.7981452941894531    0.3425123095512390    0.0681339502334595 F
   0.3318997621536255    0.8090879917144775    0.6017458438873292 F
   0.3314098417758942    0.3437785208225250    0.6007871627807617 F
   0.7976908087730408    0.3431828320026398    0.6009295582771301 F
   0.3322236239910126    0.3428525328636169    0.0681130141019821 F
   0.7980458140373230    0.8769149184226990    0.0680137202143668 F
