Generated by VASPKIT code
 1.000000
    5.4180981901344092   -0.3799329233353391   -0.9349353584972111
   -2.0491772990323236    7.6740956439778314   -0.7453420347897654
   -0.3940531162361356   -0.1591746317740109    9.0888968384192346
   Mg   Fe   O 
     1     4    12
Direct
    0.7177578551026178    0.8162892064990693    0.7709799867082250    Mg001
    0.3962288833371086    0.7485191483539504    0.3398136523872765    Fe001
    0.5651995871063707    0.0641143257566936    0.6133134668105499    Fe002
    0.6571018413922473    0.4495054718258236    0.8022987936246351    Fe003
    0.7996473721255648    0.1340313297484287    0.9750310662574503    Fe004
    0.9971214400042671    0.9860544449114130    0.9584393349406799     O001
    0.5055326300055289    0.6187702830783026    0.8676054316439695     O002
    0.1993264612082481    0.7307718916204425    0.1531115290059968     O003
    0.4671041914167054    0.2670270834786966    0.6415069442340589     O004
    0.3875822831464567    0.9707741302939960    0.4170163528489026     O005
    0.6287334017120051    0.6454313491902516    0.2921141506253331     O006
    0.8382648186204388    0.3544230262927173    0.9322992411730442     O007
    0.8555877832215666    0.6206286635527991    0.7086358850773774     O008
    0.8193447555460441    0.9629556839060633    0.6045784638491244     O009
    0.5316072927891813    0.0067734132528766    0.8016121884360378     O010
    0.2275965696896866    0.5942908982643591    0.4466580474579532     O011
    0.8275354101550563    0.1582176987813865    0.1786077057379121     O012
