Ba1 Zr1 W1 O6
1.0
   4.9773364067077637    0.0000000000000000    2.8718137741088867
   1.6588048437057525    4.6911775771028070    2.8736035823822021
   0.0000000000000000    0.0000000000000000    5.7531237602233887
Ba Zr W O
1 1 1 6
direct
   0.0313042104244232    0.1980321407318115    0.5889393091201782 Ba
   0.2820357382297516    0.4483807981014251    0.8395855426788330 Zr
   0.7811564207077029    0.9474489092826842    0.3392693400382996 W
   0.5416836738586426    0.1880428642034531    0.5789357423782349 O
   0.0214815847575665    0.7084266543388367    0.0986974835395813 O
   0.0212899241596460    0.7082548141479492    0.5792253017425537 O
   0.0215305108577013    0.1877468526363373    0.0998260974884033 O
   0.5421794652938843    0.1879088282585144    0.0992226228117943 O
   0.5412916541099548    0.7087165117263794    0.5788711309432983 O
