Ba1 Na1 Mg1 V1 P1 H1 O7 F2
1.0
   5.8460807800292960    0.0000000000000000    0.2112321406602850
   3.4685906534372166    4.9847286826574431    0.2922031879425043
   0.0000000000000000    0.0000000000000000    7.9453101158142090
Ba Na Mg V P H O F
1 1 1 1 1 1 7 2
direct
   0.7044841051101685    0.4132794737815857    0.8814671635627747 Ba
   0.8835011124610901    0.3625141084194183    0.3790128231048584 Na
   0.9958961606025696    0.7119430303573608    0.6284743547439575 Mg
   0.6970963478088379    0.9428259730339051    0.2285475432872772 V
   0.4375611543655396    0.1465023756027222    0.5822058320045471 P
   0.2637018263339996    0.3836907148361206    0.1093691363930702 H
   0.5878196954727173    0.2882497906684875    0.5835385322570801 O
   0.7431522011756897    0.6844207048416138    0.1236915290355682 O
   0.6025414466857909    0.8684845566749574    0.6837847232818604 O
   0.3926718533039093    0.0968996956944466    0.3942601382732391 O
   0.1297220587730408    0.3335770070552826    0.6555932760238647 O
   0.4226161241531372    0.2291955202817917    0.0619647726416588 O
   0.9633152484893800    0.7579405903816223    0.3853785693645477 O
   0.1212000995874404    0.8175849914550782    0.8048301935195923 F
   0.8696259260177612    0.1333631426095963    0.1718330830335617 F
