Na2 Mo4 O13                             
   1.00000000000000     
     5.2324092009545771   -0.0377995870681701   -1.9662823633970752
     0.9419460062321767    8.2790535784876838    0.4351966470836505
     0.0079723454862801   -0.0661775349442813    8.3665318655745580
   Na   Mo   O 
     2     4    13
Direct
  0.5783549629274476  0.1909302968130678  0.5572288964274528
  0.0524007152768178  0.4348849949751669  0.8491955924302458
  0.6151787894068911  0.7750308248725014  0.4672564126773434
  0.5811621409670966  0.1720004636577977  0.9729371006239231
  0.2224157111676104  0.8839427246452503  0.7516240236293245
  0.9409040947003389  0.7882343475447220  0.1131134165500368
  0.7174344949513937  0.2710226905654011  0.8392732065167126
  0.5909476742660572  0.8958883634388952  0.9565471819249117
  0.8850244763711593  0.9295520450033483  0.5791616492607462
  0.2571722127075741  0.1392671350769664  0.7921262212695774
  0.4563715634476284  0.3005470297172602  0.0931310859117555
  0.4213770056790831  0.9112047425448624  0.5851126251841344
  0.2777876594064375  0.6745116978040365  0.7729229228186221
  0.9237679360272179  0.0611512429740070  0.1767698077029815
  0.7750145740226956  0.7606855593918934  0.3018423601465856
  0.7106690717952612  0.5936812343926123  0.5860500506023375
  0.9261070104916864  0.5944118991218681  0.0541746173873637
  0.0822849007964158  0.8766964900218812  0.9541888655480710
  0.2868200310352170  0.7567819266264464  0.2994791947337659
 
  0.00000000E+00  0.00000000E+00  0.00000000E+00
  0.00000000E+00  0.00000000E+00  0.00000000E+00
  0.00000000E+00  0.00000000E+00  0.00000000E+00
  0.00000000E+00  0.00000000E+00  0.00000000E+00
  0.00000000E+00  0.00000000E+00  0.00000000E+00
  0.00000000E+00  0.00000000E+00  0.00000000E+00
  0.00000000E+00  0.00000000E+00  0.00000000E+00
  0.00000000E+00  0.00000000E+00  0.00000000E+00
  0.00000000E+00  0.00000000E+00  0.00000000E+00
  0.00000000E+00  0.00000000E+00  0.00000000E+00
  0.00000000E+00  0.00000000E+00  0.00000000E+00
  0.00000000E+00  0.00000000E+00  0.00000000E+00
  0.00000000E+00  0.00000000E+00  0.00000000E+00
  0.00000000E+00  0.00000000E+00  0.00000000E+00
  0.00000000E+00  0.00000000E+00  0.00000000E+00
  0.00000000E+00  0.00000000E+00  0.00000000E+00
  0.00000000E+00  0.00000000E+00  0.00000000E+00
  0.00000000E+00  0.00000000E+00  0.00000000E+00
  0.00000000E+00  0.00000000E+00  0.00000000E+00
