K1 Na4 Al1 Zn1 H10 O10
1.0
   6.3469853401184091    0.0000000000000000    0.0980207771062846
   0.2399303774271794    6.0559030954802902    0.5550608038902282
   0.0000000000000000    0.0000000000000000    8.9345130920410156
K Na Al Zn H O
1 4 1 1 10 10
direct
   0.8782143592834473    0.1721274256706238    0.7519925236701965 K
   0.7073689699172974    0.9405543208122252    0.4247242808341980 Na
   0.6050145030021667    0.0405539236962795    0.0673969388008118 Na
   0.1766319125890732    0.8808178305625916    0.4572724401950836 Na
   0.5359764099121094    0.5558875799179077    0.9853891730308533 Na
   0.0630326196551323    0.2297540158033371    0.1265968978404999 Al
   0.4238332211971283    0.3952955305576324    0.5533515810966492 Zn
   0.4504750669002533    0.6228172183036804    0.3241909146308899 H
   0.3486718535423279    0.3638308346271514    0.2257979363203049 H
   0.3054018914699554    0.9331724047660828    0.8935909271240234 H
   0.9693596959114075    0.5544862747192383    0.9628750085830690 H
   0.4349537193775177    0.0231367107480764    0.6722896695137024 H
   0.0222560707479715    0.8588215708732605    0.0898408666253090 H
   0.0184650178998709    0.3070539534091949    0.3765336573123932 H
   0.8203638195991516    0.6878815293312073    0.6623246669769287 H
   0.7515369057655334    0.6329626441001892    0.2066322863101959 H
   0.4900686740875244    0.6577577590942383    0.7283488512039185 H
   0.0077145700342953    0.9922406077384948    0.0319004282355309 O
   0.3214849233627319    0.5563072562217712    0.3809707462787628 O
   0.9217623472213745    0.7973612546920775    0.6231431365013123 O
   0.3423799574375153    0.2871150374412536    0.1313708126544952 O
   0.6326234340667725    0.7332272529602051    0.2300586253404617 O
   0.4300753176212311    0.0800046324729919    0.5659679174423219 O
   0.8999950289726257    0.4449043571949005    0.0198858045041561 O
   0.9696764945983887    0.1856849640607834    0.3206349909305573 O
   0.5506576895713806    0.5084521770477295    0.7218144536018372 O
   0.4443310201168060    0.9067197442054747    0.8600092530250549 O
