Na3 Bi1 O4                              
   1.00000000000000     
     5.7164125551444007   -0.0048552080412689    1.2469886760071527
     0.2130182446136354    3.2070787083239316   -0.9554166069691454
     0.0267091439749289    0.0000625844744735    5.8714957648862685
   Na   Bi   O 
     3     1     4
Direct
  0.0283702780026712  0.5030813920729934  0.0809975967766944
  0.2616643488991045  0.7590627923678184  0.5930487401926519
  0.4954801983148837  0.0151678132746510  0.1051344193059134
  0.7615962683595368  0.2594929752663432  0.5930938338099893
  0.0937225752470787  0.1449110653996004  0.3647072493801979
  0.6568039500141921  0.6513953024264533  0.3757756433189394
  0.8666388052761893  0.8672305713411771  0.8103381228169563
  0.4296835705004682  0.3737701008333316  0.8214138827428502
 
  0.00000000E+00  0.00000000E+00  0.00000000E+00
  0.00000000E+00  0.00000000E+00  0.00000000E+00
  0.00000000E+00  0.00000000E+00  0.00000000E+00
  0.00000000E+00  0.00000000E+00  0.00000000E+00
  0.00000000E+00  0.00000000E+00  0.00000000E+00
  0.00000000E+00  0.00000000E+00  0.00000000E+00
  0.00000000E+00  0.00000000E+00  0.00000000E+00
  0.00000000E+00  0.00000000E+00  0.00000000E+00
