Sn1 S2 O8
1.0
   4.9544439315795890    0.0000000000000000   -0.4885746538639074
   2.0586854575912104    4.4108527661597154   -0.7171514034271244
   0.0000000000000000    0.0000000000000000    7.6947469711303711
Sn S O
1 2 8
direct
   0.6382292509078979    0.6066573858261108    0.1512479037046432 Sn
   0.2731362879276276    0.2080323249101639    0.9379963874816895 S
   0.0064711370505393    0.0020755301229656    0.3633786439895630 S
   0.3324843943119050    0.9046769738197327    0.3298839926719666 O
   0.9634791016578674    0.9299867749214172    0.5258127450942993 O
   0.3907420933246613    0.3529013693332672    0.0994831621646881 O
   0.9465233087539673    0.3051773309707642    0.9717130064964294 O
   0.4185375869274139    0.8694421052932739    0.9481979012489319 O
   0.8879190683364868    0.8568010926246642    0.2019059062004089 O
   0.8621993064880371    0.3407044410705566    0.3525303602218628 O
   0.3171454071998596    0.2768252193927765    0.7751536369323730 O
