Na1 Sr1 Tb1 W1 O6
1.0
   5.1516175270080566    0.0000000000000000    2.9723134040832524
   1.7157967273618611    4.8613707056134805    2.9749052524566664
   0.0000000000000000    0.0000000000000000    5.9516477584838867
Na Sr Tb W O
1 1 1 1 6
direct
   0.7589426636695862    0.5575727820396423    0.3990902304649354 Na
   0.2587119936943054    0.0577080585062504    0.8989388346672057 Sr
   0.5082210898399353    0.3074297606945038    0.1492611169815063 Tb
   0.0089943706989289    0.8076130151748656    0.6488339900970459 W
   0.7759910821914673    0.5749362111091613    0.8819469809532164 O
   0.7761356234550476    0.0401352383196354    0.8816612362861632 O
   0.2412201911211014    0.5749883651733398    0.8817017674446105 O
   0.2415271103382110    0.5752276182174683    0.4161482751369476 O
   0.2414078116416931    0.0404723659157753    0.4160418510437011 O
   0.7761278152465820    0.0404089353978634    0.4163553714752197 O
