Na5 Ti1 Zn2 Si2 H1 O11
1.0
   6.3377213478088379    0.0000000000000000    0.4296581149101258
   0.4657841522023885    5.6949539410714776   -1.0929069519042960
   0.0000000000000000    0.0000000000000000    8.3851089477539062
Na Ti Zn Si H O
5 1 2 2 1 11
direct
   0.4462041854858398    0.6010536551475525    0.8978884816169739 Na
   0.8621328473091125    0.9353576898574829    0.1061033755540848 Na
   0.4022925794124603    0.2463629692792892    0.1733054220676422 Na
   0.1521144360303879    0.8842568993568420    0.4159073233604431 Na
   0.9572678208351135    0.5599105954170227    0.6990304589271545 Na
   0.6997926235198975    0.0869651511311531    0.7932864427566528 Ti
   0.9278250336647034    0.3979795575141907    0.1179563626646996 Zn
   0.4773749113082886    0.2954891026020050    0.5179784893989563 Zn
   0.1941980123519897    0.1436621546745300    0.8058813810348511 Si
   0.6449874043464661    0.7647672891616821    0.4099556803703308 Si
   0.0246278513222933    0.2721284031867981    0.3654400408267975 H
   0.0617917217314243    0.1856316924095154    0.2607996761798859 O
   0.6645212769508362    0.3364243209362030    0.6997130513191223 O
   0.5305092334747314    0.9976987838745116    0.3512738645076752 O
   0.4684325158596039    0.5685709118843079    0.4072134196758270 O
   0.4170194864273071    0.9901351332664490    0.8393090963363647 O
   0.6896209120750427    0.2585354149341583    0.0099088978022337 O
   0.9972310662269592    0.9719330668449402    0.8244780302047729 O
   0.7410581707954407    0.8356844782829285    0.5936101078987122 O
   0.1518279463052750    0.3964070975780487    0.9427392482757568 O
   0.2064602971076965    0.2216984033584595    0.6259760260581970 O
   0.8557815551757812    0.6809327006340027    0.2784840166568756 O
