Generated by VASPKIT code
 1.000000
    6.2017280562712669   -0.1224669591973473    0.2468129936975782
    0.6730836946067146    6.0224488452399960   -1.0559125755152696
   -0.5446414112776614   -0.2649771605023413   10.1382383536276315
   Sn   P    C    O 
     2     2     2    14
Direct
    0.5503778465824224    0.7573890621858714    0.7208868687864469    Sn001
    0.8685383225509956    0.8397896057021275    0.3161113489922376    Sn002
    0.0419437148829114    0.8851177660154498    0.6360867867444924     P001
    0.9534668227949944    0.2527312549848553    0.2313358171697981     P002
    0.5683461928363026    0.8155042156316561    0.9837593986031070     C001
    0.5195854667113980    0.2300931720183786    0.6548464260005085     C002
    0.8539607048256608    0.7186873617617284    0.6260928621726178     O001
    0.5508846744481526    0.0982277456489887    0.7437377839162030     O002
    0.3888963378452885    0.8036112583406230    0.9091309758576780     O003
    0.0868173691795621    0.0100711796160047    0.2111955310971030     O004
    0.1019493050890676    0.4263626793037211    0.3068668155815014     O005
    0.8825371125279565    0.2927979456157168    0.0933266767475255     O006
    0.0377506683782758    0.0577885738647211    0.7651393549348569     O007
    0.0207095925526900    0.9871848915908313    0.5091829697211744     O008
    0.5696554064744849    0.8704396213074364    0.1079203059791831     O009
    0.4249636834966631    0.1843431396565320    0.5461533802778861     O010
    0.7655551020037832    0.2231396432089399    0.3263783555326264     O011
    0.2553852152349271    0.7164309214192477    0.6233424577453269     O012
    0.7448952097841516    0.7619149008889673    0.9056952055224525     O013
    0.6123100758959141    0.4182913834711259    0.7011124521095352     O014
