Na7 V1 H18 W2 O20                       
   1.00000000000000     
     6.5658359715634029   -0.1733373988928529    0.8305580473447833
     0.1348798107023212    8.3373171547680833    0.4692106492689914
     0.1831641984218861    0.3667164466642743   10.0368253627834179
   Na   V    H    W    O 
     7     1    18     2    20
Direct
  0.7457868873169177  0.3776364497160769  0.3114510049137085
  0.3265784221946910  0.8381002094595750  0.4412215548086960
  0.2550050647594793  0.4036531995349699  0.3156635392846124
  0.2342197358401127  0.6658955998321398  0.7317977870893084
  0.3826160885117456  0.0353295574474430  0.0754862332464729
  0.8949651271501325  0.1208301836392013  0.0569417710370786
  0.6967216148419076  0.3673085505428661  0.7168815987059305
  0.8567865067900480  0.5141415311164882  0.9805340239826285
  0.7026546768122193  0.9417637449141648  0.8599755634834366
 -0.0004623074590556  0.5786162214458893  0.5042885746647841
  0.0910802947412424  0.4407361324084360  0.5964613738580842
  0.8814662883862138  0.9427563296591640  0.6528903602891027
  0.2651950732363947  0.6052961565802286  0.9586298685586214
  0.5047582141561193  0.6427511930616507  0.9280171940814405
  0.6449478210317151  0.6647809525505810  0.5048349533902295
  0.4890333975919965  0.1329455206946014  0.3496448812340244
  0.4951201596381359  0.3389308370634196  0.0820904734515268
  0.9844028057642049  0.1127091889642111  0.3555110303304569
  0.6507824274704371  0.9883334203991954  0.2831908594285893
  0.6627205010311396  0.0344082374082363  0.6627229078234516
  0.3257171669580597  0.6855959306053547  0.1242894556719294
  0.0012881400847629  0.2032445683511634  0.4895372035121475
  0.7339715272228504  0.8540635770166040 -0.0000313248417730
  0.4794372586084905  0.2235595219167499  0.5056990634056295
  0.6204226490119050  0.7796170795204923  0.6212677715595941
  0.2795609870002901  0.3701939164750430  0.0230489773325828
  0.9705293943855479  0.7429167360655347  0.2348073707888572
  0.2048937122166844  0.1118656955435411  0.7277491839991054
  0.1605031312202873  0.0658172208974540  0.9072473110718998
  0.1198040392831579  0.5520227504649005  0.5500123841226828
  0.6884245120747338  0.9574941475626582  0.9577782556797100
  0.3444598868229091  0.3121123230970182  0.0965139353757994
  0.4698819485979083  0.1801462012396276  0.6813575738158274
  0.7483507231905392  0.3543844216236487  0.0897694357463794
  0.5069967444387931  0.0154151250353234  0.2844267076821985
  0.1106675623305396  0.4783711883810569  0.9182151377400644
  0.8494784197332734  0.6966473253568249  0.0847267537231554
  0.8355669221211357  0.6217113163346624  0.3807798152692514
  0.1624645169839558  0.9308487241661367  0.6466586885087999
 -0.0138454974467844  0.2190445023924172  0.3928188932013085
  0.9598627456220508  0.9583137283588120  0.2542783875267043
  0.7328170464988860  0.9321204281933201  0.6851408675469567
  0.2510476053736412  0.6814410909398874  0.2245073164421794
  0.3712482458842966  0.6902976403923016  0.9681022991660679
  0.7075810041367326  0.5580215275011531  0.8553469535088398
  0.0212282900335077  0.2551962992583768  0.6674345196383750
  0.4705593015429845  0.2516893667707210  0.4098724458247005
  0.5425244185523757  0.7005120114818795  0.5783507589195902
 
  0.00000000E+00  0.00000000E+00  0.00000000E+00
  0.00000000E+00  0.00000000E+00  0.00000000E+00
  0.00000000E+00  0.00000000E+00  0.00000000E+00
  0.00000000E+00  0.00000000E+00  0.00000000E+00
  0.00000000E+00  0.00000000E+00  0.00000000E+00
  0.00000000E+00  0.00000000E+00  0.00000000E+00
  0.00000000E+00  0.00000000E+00  0.00000000E+00
  0.00000000E+00  0.00000000E+00  0.00000000E+00
  0.00000000E+00  0.00000000E+00  0.00000000E+00
  0.00000000E+00  0.00000000E+00  0.00000000E+00
  0.00000000E+00  0.00000000E+00  0.00000000E+00
  0.00000000E+00  0.00000000E+00  0.00000000E+00
  0.00000000E+00  0.00000000E+00  0.00000000E+00
  0.00000000E+00  0.00000000E+00  0.00000000E+00
  0.00000000E+00  0.00000000E+00  0.00000000E+00
  0.00000000E+00  0.00000000E+00  0.00000000E+00
  0.00000000E+00  0.00000000E+00  0.00000000E+00
  0.00000000E+00  0.00000000E+00  0.00000000E+00
  0.00000000E+00  0.00000000E+00  0.00000000E+00
  0.00000000E+00  0.00000000E+00  0.00000000E+00
  0.00000000E+00  0.00000000E+00  0.00000000E+00
  0.00000000E+00  0.00000000E+00  0.00000000E+00
  0.00000000E+00  0.00000000E+00  0.00000000E+00
  0.00000000E+00  0.00000000E+00  0.00000000E+00
  0.00000000E+00  0.00000000E+00  0.00000000E+00
  0.00000000E+00  0.00000000E+00  0.00000000E+00
  0.00000000E+00  0.00000000E+00  0.00000000E+00
  0.00000000E+00  0.00000000E+00  0.00000000E+00
  0.00000000E+00  0.00000000E+00  0.00000000E+00
  0.00000000E+00  0.00000000E+00  0.00000000E+00
  0.00000000E+00  0.00000000E+00  0.00000000E+00
  0.00000000E+00  0.00000000E+00  0.00000000E+00
  0.00000000E+00  0.00000000E+00  0.00000000E+00
  0.00000000E+00  0.00000000E+00  0.00000000E+00
  0.00000000E+00  0.00000000E+00  0.00000000E+00
  0.00000000E+00  0.00000000E+00  0.00000000E+00
  0.00000000E+00  0.00000000E+00  0.00000000E+00
  0.00000000E+00  0.00000000E+00  0.00000000E+00
  0.00000000E+00  0.00000000E+00  0.00000000E+00
  0.00000000E+00  0.00000000E+00  0.00000000E+00
  0.00000000E+00  0.00000000E+00  0.00000000E+00
  0.00000000E+00  0.00000000E+00  0.00000000E+00
  0.00000000E+00  0.00000000E+00  0.00000000E+00
  0.00000000E+00  0.00000000E+00  0.00000000E+00
  0.00000000E+00  0.00000000E+00  0.00000000E+00
  0.00000000E+00  0.00000000E+00  0.00000000E+00
  0.00000000E+00  0.00000000E+00  0.00000000E+00
  0.00000000E+00  0.00000000E+00  0.00000000E+00
