Na2 Cu1 F4
1.0
   4.0193161964416504    0.0000000000000000    2.0049183368682857
  -0.4561984957685503    3.2735324523239031    1.1454749107360833
   0.0000000000000000    0.0000000000000000    8.7503004074096680
Na Cu F
2 1 4
direct
   0.4540101587772369    0.8265165090560914    0.7680272459983826 Na
   0.7294868826866150    0.1204484105110169    0.0391819775104523 Na
   0.0925007835030556    0.4719358980655671    0.4039139151573181 Cu
   0.6738547682762146    0.4982232749462128    0.5589020252227783 F
   0.2751821875572205    0.1590701788663864    0.9809690117835999 F
   0.5137206315994263    0.4491018056869507    0.2493076026439667 F
   0.9101224541664124    0.7883574962615967    0.8263323307037354 F
