Na1 Au1 O1                              
   1.00000000000000     
     3.4701781107273169   -0.0053580768177877    0.0209477483402373
     0.0078800641470478    3.5108269705836106   -0.0107894048087242
    -0.0158741245336296    0.0025957469384505    4.0594260753673534
   Na   Au   O 
     1     1     1
Direct
  0.9025080106014874  0.0835555863513956  0.3970058104067326
  0.4019290622691115  0.5841259449237589  0.8968218893707811
  0.4030715507294072  0.5841602149955020  0.3970203229218424
 
  0.00000000E+00  0.00000000E+00  0.00000000E+00
  0.00000000E+00  0.00000000E+00  0.00000000E+00
  0.00000000E+00  0.00000000E+00  0.00000000E+00
