Na2 Cd2 O3
1.0
   3.2747638225555420    0.0000000000000000   -0.0104889692738649
  -0.0186447208472708    4.5344942159143020   -0.0292702205479148
   0.0000000000000000    0.0000000000000000    6.7992892265319824
Na Cd O
2 2 3
direct
   0.9355284571647644    0.6954497098922729    0.6785675287246704 Na
   0.4353523552417755    0.1943317651748657    0.8772743940353394 Na
   0.4360148906707764    0.1940177530050278    0.3986272215843201 Cd
   0.9348334670066833    0.6940598487854003    0.1084617450833321 Cd
   0.4361096918582916    0.6948480010032654    0.9081447720527650 O
   0.9357914924621582    0.1942822486162185    0.1738217175006866 O
   0.9360390901565552    0.1955696046352386    0.6032273173332214 O
