Na2 Ga1 Cu2 As3 H3 O15 F1
1.0
   5.6453118324279785    0.0000000000000000    1.2819950580596926
   0.9904392841098903    6.0347402597825628    0.4710976779460914
   0.0000000000000000    0.0000000000000000   10.6618881225585938
Na Ga Cu As H O F
2 1 2 3 3 15 1
direct
   0.0397954918444157    0.2504473924636841    0.9999949336051941 Na
   0.8969747424125670    0.7236952781677246    0.5319880247116089 Na
   0.2089521586894989    0.1390756517648697    0.4454714953899385 Ga
   0.5520784854888916    0.4300385415554047    0.8870086669921875 Cu
   0.1046835705637932    0.7835719585418701    0.1729106456041336 Cu
   0.4271523654460906    0.2607681453227997    0.6578878164291382 As
   0.6769434809684753    0.8664834499359131    0.9787336587905884 As
   0.4806226491928100    0.3756401240825653    0.2016483396291733 As
   0.6777698397636414    0.8843687772750854    0.3112067878246307 H
   0.3383399546146392    0.8465324044227601    0.5844125747680664 H
   0.7661195397377013    0.6204713582992554    0.2849669754505157 H
   0.6963874697685242    0.5149472355842590    0.7136490941047668 O
   0.8655458092689513    0.9056047797203065    0.0813898071646690 O
   0.7658327221870421    0.4116045832633972    0.1896959543228149 O
   0.2150500863790512    0.3429763913154602    0.5628484487533569 O
   0.2357508093118667    0.8610453605651855    0.5240592360496521 O
   0.4392480552196502    0.1374752223491669    0.2995446324348450 O
   0.3662061095237732    0.8902355432510376    0.0476463995873928 O
   0.6211903691291809    0.4668748080730439    0.6037967205047607 O
   0.3929539322853088    0.3625663220882416    0.0557988658547401 O
   0.3047146201133728    0.3300234675407410    0.8124461174011230 O
   0.2801197171211243    0.5892148017883301    0.2742325961589813 O
   0.5701372027397156    0.0040647443383932    0.6259634494781494 O
   0.7415042519569396    0.0773354247212410    0.8704140186309814 O
   0.8089580535888671    0.7569468617439270    0.3200808763504028 O
   0.7675853371620177    0.6061022877693176    0.9256933927536011 O
   0.9281165599822997    0.1769336163997650    0.4017535746097565 F
