Generated by VASPKIT code
 1.000000
    6.9395808567106050   -0.0280444827365023    0.0606604860565876
   -0.3288606120085389    6.9447363821130805   -0.0028203188955490
   -0.0616084157429174    0.0060465471228708    9.0977528501997060
   Zn   S 
     4     8
Direct
    0.5204024690649144    0.0267950512583455    0.0554562816235361    Zn001
    0.0071875578840914    0.9687106531776191    0.2824435219420727    Zn002
    0.7014844998217502    0.5090595028270436    0.8143593208848654    Zn003
    0.9515584787979536    0.7078830401377597    0.5486177453413907    Zn004
    0.6235228501981814    0.1748886453449439    0.8318173247601686     S001
    0.1207086051212242    0.0312829870698668    0.5400676618099133     S002
    0.1993431891681659    0.1139104238485897    0.0935783999626248     S003
    0.0372750100459239    0.5888924899844393    0.7808013935430836     S004
    0.5636437714717870    0.6865659305569277    0.0050795205318148     S005
    0.6950510576128927    0.0916458541816290    0.2741945785771778     S006
    0.0731281688079901    0.6315010479877851    0.3138550015297582     S007
    0.6152200155418472    0.5942375605946754    0.5599841005511297     S008
