Na1 V2 Fe3 O8
1.0
   5.2332396507263184    0.0000000000000000    3.0226559638977060
   1.7525963718115634    4.9393024526154310    3.0199971199035640
   0.0000000000000000    0.0000000000000000    6.0690937042236328
Na V Fe O
1 2 3 8
direct
   0.5248832702636719    0.2991296648979187    0.6450130939483644 Na
   0.1461424082517624    0.9201676845550537    0.7824714779853821 V
   0.9041435122489929    0.6787011027336121    0.5089843273162842 V
   0.0247381068766117    0.2991819977760315    0.1455826461315155 Fe
   0.5252969264984131    0.2993037402629852    0.1451445817947388 Fe
   0.5245743989944458    0.7989078760147095    0.1454214006662369 Fe
   0.2779995203018189    0.5586267113685608    0.3732030391693115 O
   0.7839487195014954    0.5590255856513977    0.3740873932838440 O
   0.7745718955993652    0.5493811368942261    0.8984666466712952 O
   0.2757976055145264    0.0498328842222691    0.3913163840770721 O
   0.7712448239326477    0.0396240279078484    0.9182475805282594 O
   0.2653648853302003    0.5460752248764038    0.9179269671440126 O
   0.2662478983402252    0.0394599437713623    0.9185312390327455 O
   0.7839567065238953    0.0516978949308395    0.3735059201717378 O
