Na2 Mo1 O1 F5
1.0
   5.1774268150329581    0.0000000000000000    3.0030777454376225
  -3.4206531779943843    4.9009852679881831    0.0830938071012503
   0.0000000000000000    0.0000000000000000    6.0209674835205078
Na Mo O F
2 1 1 5
direct
   0.6720097661018373    0.8607697486877443    0.3161953389644623 Na
   0.1786039918661118    0.6135050654411316    0.0617471411824226 Na
   0.7107376456260681    0.3801595866680145    0.7953147292137146 Mo
   0.1188495755195618    0.5839935541152954    0.5921278595924377 O
   0.6694865226745605    0.5925665497779846    0.5836006402969360 F
   0.6701979637145996    0.1255033910274506    0.0501533374190331 F
   0.6707713603973389    0.1249779388308525    0.5824927687644958 F
   0.2145553529262543    0.1308835595846176    0.0441858917474747 F
   0.6718385219573975    0.5941804051399231    0.0491016283631325 F
