Na3 Ti1 Zn2 Si2 B1 O11
1.0
   5.3629055023193359    0.0000000000000000    0.7413588762283322
   0.3874976553819495    6.0903339112430244    0.3963427245616913
   0.0000000000000000    0.0000000000000000    7.8210759162902832
Na Ti Zn Si B O
3 1 2 2 1 11
direct
   0.4472581744194031    0.4379081428050995    0.3295942246913910 Na
   0.7540728449821472    0.8206799626350403    0.8718408346176149 Na
   0.2005321383476257    0.3507669568061829    0.7883885502815248 Na
   0.2982380092144012    0.8893480896949768    0.5909644365310670 Ti
   0.6573382616043091    0.9098744392395020    0.2556778788566589 Zn
   0.0984902977943420    0.1532932370901108    0.2105317562818527 Zn
   0.2305157482624054    0.6925291419029236    0.0377452336251736 Si
   0.7714464068412781    0.1863014698028565    0.5894235372543336 Si
   0.8556798100471497    0.6150868535041809    0.5409225821495057 B
   0.2692352533340454    0.7198635339736940    0.8232779502868653 O
   0.3338567912578583    0.0541716888546944    0.3749231398105622 O
   0.9992341399192810    0.0481380075216293    0.6764352321624756 O
   0.1096463948488235    0.6526922583580017    0.5082654953002930 O
   0.7937428355216980    0.1965114027261734    0.3783538341522217 O
   0.5106812119483948    0.0922351256012917    0.6856215000152589 O
   0.4883121550083160    0.7347652912139893    0.1107041090726853 O
   0.7945770025253296    0.4358460307121277    0.6540416479110719 O
   0.0040075778961182    0.8823670148849487    0.1061874777078629 O
   0.1583357155323029    0.4399425089359284    0.0866477712988854 O
   0.6485919952392578    0.7243667244911194    0.4838141202926636 O
