Na10 Ti2 Si2 O13                        
   1.00000000000000     
     6.0920685432593222   -0.0041617084860398    0.0104700986402959
    -0.0095514290797132    7.1029870036679466   -0.0922505051282472
     0.0001949776902645   -0.0841442241816156   10.0559747152258918
   Na   Ti   Si   O 
    10     2     2    13
Direct
  0.6337141587556170  0.6002309540942101  0.7892419414740788
  0.1638362297653334  0.1006200113967585  0.2959664545210841
  0.1799939714715528  0.6020988278284847  0.7897259968571747
  0.9048257524543896  0.4069209647912794  0.4526450160779722
  0.9047915685618512  0.8662203525039063  0.0016887469942052
  0.1787489115976772  0.1150673882353190  0.7247191297964184
  0.6318732394346021  0.1141883728590781  0.7249882712494561
  0.1692169425154182  0.6109135710536738  0.2351562239334308
  0.6395294410616130  0.6100357916809903  0.2351773507073845
  0.6446673978543644  0.1004567112216027  0.2955905241685727
  0.9042296343322495  0.7971951362068530  0.4982792511358946
  0.4048818715157002  0.0417582103272337  0.0063829375851629
  0.4044154294932695  0.5061470503282713  0.5123031044068026
  0.9055589973774721  0.3050986587572747  0.0418873968594009
  0.9068668669008071  0.5037083901650617  0.9619390479602663
  0.1272516394807370  0.1713857474048092  0.9984710754592927
  0.6343078219963572  0.6333996519284547  0.5084728459808786
  0.6817837750342528  0.1728422304723028  0.9989469915400759
  0.9061895952323749  0.8624133952046578  0.7070141455239165
  0.4048819601320726  0.3742952853308675  0.3721952226940138
  0.9031432121659797  0.0527862163768730  0.5299407811260807
  0.1756674402378514  0.6336448996709908  0.5078376672240897
  0.4044461320967179  0.8958402286689643  0.1515481264798463
  0.9054918711614142  0.3387880877619172  0.2028873454814238
  0.4063502950767484  0.8864511072446428  0.8622705038659007
  0.9048306832693521  0.8269575353809513  0.3102537085826171
  0.4042995592128166  0.3869752383907792  0.6551516921440770
 
  0.00000000E+00  0.00000000E+00  0.00000000E+00
  0.00000000E+00  0.00000000E+00  0.00000000E+00
  0.00000000E+00  0.00000000E+00  0.00000000E+00
  0.00000000E+00  0.00000000E+00  0.00000000E+00
  0.00000000E+00  0.00000000E+00  0.00000000E+00
  0.00000000E+00  0.00000000E+00  0.00000000E+00
  0.00000000E+00  0.00000000E+00  0.00000000E+00
  0.00000000E+00  0.00000000E+00  0.00000000E+00
  0.00000000E+00  0.00000000E+00  0.00000000E+00
  0.00000000E+00  0.00000000E+00  0.00000000E+00
  0.00000000E+00  0.00000000E+00  0.00000000E+00
  0.00000000E+00  0.00000000E+00  0.00000000E+00
  0.00000000E+00  0.00000000E+00  0.00000000E+00
  0.00000000E+00  0.00000000E+00  0.00000000E+00
  0.00000000E+00  0.00000000E+00  0.00000000E+00
  0.00000000E+00  0.00000000E+00  0.00000000E+00
  0.00000000E+00  0.00000000E+00  0.00000000E+00
  0.00000000E+00  0.00000000E+00  0.00000000E+00
  0.00000000E+00  0.00000000E+00  0.00000000E+00
  0.00000000E+00  0.00000000E+00  0.00000000E+00
  0.00000000E+00  0.00000000E+00  0.00000000E+00
  0.00000000E+00  0.00000000E+00  0.00000000E+00
  0.00000000E+00  0.00000000E+00  0.00000000E+00
  0.00000000E+00  0.00000000E+00  0.00000000E+00
  0.00000000E+00  0.00000000E+00  0.00000000E+00
  0.00000000E+00  0.00000000E+00  0.00000000E+00
  0.00000000E+00  0.00000000E+00  0.00000000E+00
