Na6 Sc1 Cl8
1.0
   5.3957552909851074    0.0000000000000000   -1.4661780595779426
  -2.8556853355785554    6.3043414791150116    0.0212083049118517
   0.0000000000000000    0.0000000000000000   10.6109952926635742
Na Sc Cl
6 1 8
direct
   0.1703940033912659    0.4912867844104767    0.4393114149570465 Na
   0.9231808781623841    0.7448936700820922    0.6900740265846252 Na
   0.2931402623653412    0.3585643768310547    0.8179021477699280 Na
   0.4175452291965485    0.2404942363500595    0.1850144714117050 Na
   0.7957885861396791    0.8708847761154175    0.3089409768581390 Na
   0.5488749742507935    0.1179889887571335    0.5696972608566284 Na
   0.0453661978244781    0.6198548674583435    0.0604049637913704 Sc
   0.6692683100700378    0.4885560572147369    0.4391768872737885 Cl
   0.4138619005680084    0.7355108261108397    0.6801905632019043 Cl
   0.5440322756767273    0.6101546883583069    0.0654463917016983 Cl
   0.0457264967262745    0.1161014065146446    0.5631337165832520 Cl
   0.1613615751266479    0.9594077467918395    0.9498894214630127 Cl
   0.9381418228149415    0.2824666798114777    0.1832887232303619 Cl
   0.2776998877525329    0.8532168269157409    0.2914558053016663 Cl
   0.8180185556411744    0.3913893401622772    0.8340842127799988 Cl
