Na1 Li1 Zn2 As2
1.0
   4.3349146842956534    0.0000000000000000   -0.0071568340063096
  -2.1366784415660618    3.7486611511975294    0.0057396604679517
   0.0000000000000000    0.0000000000000000    7.3137836456298828
Na Li Zn As
1 1 2 2
direct
   0.5419187545776367    0.1224265545606613    0.2021633237600327 Na
   0.5420858860015869    0.1227116212248802    0.7017901539802551 Li
   0.8745712637901307    0.7889016270637513    0.5638877153396606 Zn
   0.2095146924257278    0.4564932584762573    0.8416755795478821 Zn
   0.2082523703575135    0.4562753140926362    0.4795419275760651 As
   0.8755207061767578    0.7898481488227844    0.9243717193603517 As
