Na4 Mg1 Al2 Ge2 O10
1.0
   6.2300734519958496    0.0000000000000000   -0.0040389811620111
   0.0388348663321196    5.2331184445142060   -1.5950607061386106
   0.0000000000000000    0.0000000000000000    8.3250350952148438
Na Mg Al Ge O
4 1 2 2 10
direct
   0.9555947184562682    0.9861453175544739    0.4016443789005280 Na
   0.7780045866966248    0.4879232048988342    0.9029748439788818 Na
   0.6310966610908508    0.4814522564411163    0.4088442623615264 Na
   0.2794307172298431    0.9670273661613464    0.9040395617485046 Na
   0.7964399456977843    0.9810478091239930    0.9037936925888062 Mg
   0.1348606646060944    0.5319216251373291    0.5993745923042297 Al
   0.4466294646263122    0.9461137056350709    0.2125420719385147 Al
   0.1408493667840958    0.4414131641387940    0.2044589519500732 Ge
   0.4417020678520202    0.0240458548069000    0.5977567434310913 Ge
   0.2022555917501449    0.2132160812616348    0.6052038073539734 O
   0.5873230099678040    0.9892891049385071    0.4068285226821899 O
   0.3763684928417206    0.2673883736133575    0.2102593332529068 O
   0.6105874180793762    0.8403983116149902    0.0390675403177738 O
   0.2049034088850021    0.7599201202392578    0.1983249932527542 O
   0.6074039340019226    0.1380882263183594    0.7715753316879272 O
   0.9813523888587951    0.2607182860374451    0.0345170125365257 O
   0.3742811977863312    0.7073252201080322    0.5977541804313660 O
   0.9722444415092467    0.7078962326049806    0.7644751667976379 O
   0.9977270364761351    0.4840404391288757    0.3991486430168152 O
