Na4 Cu4 Te8
1.0
   7.5830302238464355    0.0000000000000000    0.4365676641464238
  -1.2540674162248586    7.5837591488535292    1.9871553182601933
   0.0000000000000000    0.0000000000000000    8.9205980300903320
Na Cu Te
4 4 8
direct
   0.5118552446365356    0.9804058670997619    0.0694656297564507 Na
   0.7777893543243407    0.4797375500202178    0.2531388103961945 Na
   0.2659677863121033    0.4835079312324523    0.4869706630706787 Na
   0.2766276895999908    0.4703550040721893    0.9682695865631104 Na
   0.9414185285568237    0.8933025598526000    0.0462273769080639 Cu
   0.3214496672153473    0.0465387515723705    0.5767315030097961 Cu
   0.8370797634124756    0.8523943424224852    0.6512981057167053 Cu
   0.7198209166526794    0.0819048285484314    0.3528133034706116 Cu
   0.6524717211723328    0.7440726161003112    0.4406559169292450 Te
   0.8522593975067139    0.2114203125238418    0.5823507905006409 Te
   0.6794960498809813    0.7150731086730956    0.9271905422210693 Te
   0.1577169448137283    0.7108594775199889    0.1712886244058609 Te
   0.1430956721305847    0.7466714382171630    0.6661670207977295 Te
   0.4067353308200836    0.2167813926935196    0.2940505445003510 Te
   0.9100349545478821    0.1934578269720077    0.0683879405260086 Te
   0.4634796679019928    0.2293393164873123    0.7473133206367493 Te
