Na4 Sn2 P2 C2 O14
1.0
   6.5026984214782715    0.0000000000000000    0.5645731687545780
   0.7598279449097772    6.1335422323899333   -0.7969809174537660
   0.0000000000000000    0.0000000000000000    9.4950551986694336
Na Sn P C O
4 2 2 2 14
direct
   0.9974758028984070    0.3176928758621216    0.5597208738327026 Na
   0.1898973733186722    0.0424893461167812    0.9442721605300903 Na
   0.7211702466011047    0.3365306258201599    0.9190502166748047 Na
   0.4206024706363678    0.1984010934829712    0.2875879406929016 Na
   0.5286719799041748    0.7293779850006102    0.6878427863121033 Sn
   0.9219126701354980    0.8023880124092101    0.2732557356357574 Sn
   0.0120697300881147    0.8617110252380371    0.6512662172317505 P
   0.9772898554801941    0.2379884719848633    0.2242592722177505 P
   0.6129633784294128    0.8660979270935059    0.9996117353439331 C
   0.4765259027481079    0.2297689169645309    0.6369044780731201 C
   0.8490336537361145    0.6893196105957031    0.6656515598297119 O
   0.4909270405769348    0.0744256675243378    0.7194581627845764 O
   0.5133964419364929    0.7344899177551270    0.9061360359191895 O
   0.1260586082935333    0.0107590975239873    0.1962514519691467 O
   0.0788386762142181    0.3973352611064911    0.3265186846256256 O
   0.9497859477996826    0.3108432292938232    0.0819239541888237 O
   0.9691517949104309    0.0683722347021103    0.7585103511810303 O
   0.0191245451569557    0.9126852750778197    0.4944235682487488 O
   0.5281158089637756    0.0670602023601532    0.0353000834584236 O
   0.3696379363536835    0.2361606359481811    0.5367798209190369 O
   0.7801594734191895    0.1597066819667816    0.2993611991405487 O
   0.2171795368194580    0.7224620580673217    0.6843948960304260 O
   0.7866035699844360    0.7907992005348206    0.0380565151572227 O
   0.5929931402206421    0.3900683820247650    0.6767303347587585 O
