Na7 Al5 Se11
1.0
   7.4574885368347168    0.0000000000000000    1.5682895183563241
   0.7785893345972635    7.7757651956701315    0.9303500056266779
   0.0000000000000000    0.0000000000000000   10.2824687957763672
Na Al Se
7 5 11
direct
   0.3920300900936127    0.4350829422473908    0.7605604529380798 Na
   0.0988598987460136    0.2772367596626282    0.2725848257541656 Na
   0.2508350014686584    0.8378793597221376    0.5484634637832642 Na
   0.6684529185295105    0.8907593488693237    0.7201535701751709 Na
   0.4862856864929199    0.6371566057205201    0.2722768485546112 Na
   0.7699298858642578    0.5195177793502808    0.9700038433074951 Na
   0.9864442944526672    0.3436191380023957    0.6377544403076172 Na
   0.4219138324260712    0.0180174894630909    0.0281937047839165 Al
   0.5886248946189880    0.1297239959239960    0.3917608261108398 Al
   0.8839640021324158    0.7458574771881104    0.3925617039203644 Al
   0.8357174396514893    0.1093738302588463    0.0710793510079384 Al
   0.1247001364827156    0.8137730956077577    0.9534633755683899 Al
   0.0410134010016918    0.6763895750045777    0.7874706983566283 Se
   0.3958725035190582    0.0092212669551373    0.2637748420238495 Se
   0.3851739168167114    0.1614650785923004    0.5877245068550110 Se
   0.4296102523803711    0.7234639525413513    0.9732740521430969 Se
   0.6309837102890015    0.6216405630111694    0.5317158102989197 Se
   0.1432327926158905    0.1416143476963043    0.9483695030212402 Se
   0.8832714557647705    0.0224839001893997    0.4687533378601074 Se
   0.7321475744247437    0.3328227400779725    0.2226514667272568 Se
   0.8760917782783508    0.7983632087707520    0.1475267261266708 Se
   0.6637132167816162    0.1776056885719300    0.8919742703437805 Se
   0.1426708847284317    0.5613148808479310    0.4084579050540924 Se
