Na4 H2 S2 O9
1.0
   5.3395810127258301    0.0000000000000000   -0.0735607519745832
  -0.1881806642648786    5.5559972108865203    0.0082961833104492
   0.0000000000000000    0.0000000000000000    7.5542244911193848
Na H S O
4 2 2 9
direct
   0.3477566242218018    0.5800089240074158    0.5585638284683228 Na
   0.2953844368457794    0.5808604955673218    0.1246842518448830 Na
   0.8232287764549255    0.0738801807165146    0.1550766378641129 Na
   0.2836338877677917    0.1045143157243729    0.8455768227577211 Na
   0.8805720210075378    0.0754053294658661    0.6437692046165466 H
   0.7546042203903198    0.5976824760437012    0.3577577471733094 H
   0.8467547297477722    0.5714702606201172    0.8535144329071046 S
   0.2781956493854523    0.0748439952731133    0.3486225008964539 S
   0.9464988708496094    0.7982267737388611    0.9398190975189210 O
   0.1230324730277061    0.2915024459362030    0.3488334715366364 O
   0.1181813403964043    0.8536586761474609    0.3443258404731751 O
   0.5606151223182678    0.5538505315780640    0.8598486185073854 O
   0.4337528347969055    0.0747487843036652    0.5209764838218689 O
   0.4151184260845184    0.0786092951893806    0.1752163618803025 O
   0.9247248768806458    0.5707692503929138    0.6722489595413209 O
   0.6236097812652588    0.5825504660606384    0.3124218285083771 O
   0.9576323628425598    0.3573957085609436    0.9465686678886415 O
