Na2 Cu1 O2
1.0
   3.2356967926025391    0.0000000000000000   -0.8507305979728695
  -0.2293583382654635    3.2442341018938650   -0.8651728630065921
   0.0000000000000000    0.0000000000000000    6.5596265792846680
Na Cu O
2 1 2
direct
   0.4326255917549133    0.9768751859664916    0.0793967992067337 Na
   0.7650576829910278    0.3085601627826691    0.7441791296005249 Na
   0.0996080413460732    0.6423507928848267    0.4100913703441620 Cu
   0.9565786719322206    0.4998782575130463    0.1254816055297852 O
   0.2422632426023484    0.7855104804039001    0.6963767409324646 O
