Na6 Li2 Ti1 Ag1 P5 O20
1.0
   6.1700181961059570    0.0000000000000000   -1.5049622058868404
   1.2824562828055830    8.8854172786443613   -0.1475761085748671
   0.0000000000000000    0.0000000000000000    9.0681791305541992
Na Li Ti Ag P O
6 2 1 1 5 20
direct
   0.0578742325305939    0.1548992544412613    0.7635187506675720 Na
   0.8246532082557678    0.2597855031490326    0.1944535970687866 Na
   0.5231180191040038    0.6861392259597778    0.3726330399513245 Na
   0.1663796007633209    0.8025325536727906    0.0053303451277316 Na
   0.0298324692994356    0.5731952786445618    0.3110131323337555 Na
   0.7344660758972168    0.6837245821952821    0.7779454588890076 Na
   0.5749754905700685    0.5516890883445740    0.0322611890733242 Li
   0.3376575112342834    0.1469393521547318    0.1725336462259293 Li
   0.2786389589309692    0.4803366065025330    0.6794936060905457 Ti
   0.5013814568519592    0.0722438693046570    0.5927395224571228 Ag
   0.0575921870768070    0.9493097066879274    0.3175853192806244 P
   0.9876498579978943    0.8275989294052125    0.6044774651527405 P
   0.6203365325927734    0.3526304364204407    0.4529831409454346 P
   0.6599887609481812    0.8773520588874817    0.0936035811901093 P
   0.1050272434949875    0.4428150355815888    0.9941896796226501 P
   0.2925731241703033    0.2873210608959198    0.6854398250579833 O
   0.0540202148258686    0.5018407702445985    0.8218420743942261 O
   0.5302303433418274    0.2543964087963105    0.3192186653614044 O
   0.4213618934154510    0.4711160957813263    0.4957663714885712 O
   0.7998998165130614    0.9781069755554200    0.2274073362350464 O
   0.7794189453125000    0.8594007492065431    0.9676459431648254 O
   0.4757078289985657    0.5512530207633972    0.8139664530754089 O
   0.7446019649505615    0.2591892182826996    0.5985261201858521 O
   0.0524357520043850    0.9476252198219299    0.4964129626750946 O
   0.0791712924838066    0.8860093951225281    0.7583190202713013 O
   0.1710281670093536    0.2705979347229004    0.0002343654632568 O
   0.7756829261779785    0.4482532739639282    0.3980564773082733 O
   0.6563544273376465    0.7265552878379822    0.1687333732843399 O
   0.1471495032310486    0.0917790308594704    0.2963987588882446 O
   0.7366624474525452    0.8302714824676514    0.5600554347038269 O
   0.1033891290426254    0.6651687622070314    0.5699478387832642 O
   0.2869858443737031    0.5306194424629211    0.0869288444519043 O
   0.4384911060333252    0.9733208417892456    0.0594457276165485 O
   0.8965364098548889    0.4753709137439728    0.0593834668397903 O
   0.1700394004583358    0.8036230802536012    0.2744364142417908 O
