Na7 Sc1 Br8
1.0
   4.1525216102600089    0.0000000000000000   -0.0003323393757452
  -0.0358983383960378    8.3586265261693224   -0.0177937354892495
   0.0000000000000000    0.0000000000000000   11.7125453948974609
Na Sc Br
7 1 8
direct
   0.7139269113540649    0.0620048083364964    0.9149757027626038 Na
   0.7158555388450623    0.0623065792024136    0.4101658165454865 Na
   0.7150342464447021    0.5607762336730957    0.4095273911952972 Na
   0.2153545767068863    0.8110443949699402    0.1618090122938156 Na
   0.7141057848930359    0.5599427819252014    0.9146730303764343 Na
   0.2154380977153778    0.3104573190212250    0.1628441959619522 Na
   0.2134510725736618    0.3117856383323669    0.6619994044303894 Na
   0.2147165089845657    0.8112164139747620    0.6613556742668152 Sc
   0.2140269279479980    0.3105148673057556    0.9068765044212341 Br
   0.2142321169376373    0.8110876083374023    0.4299351274967194 Br
   0.7161975502967834    0.0574482008814812    0.1623456180095673 Br
   0.7147349119186401    0.5648154616355896    0.1619853079319000 Br
   0.2154963314533234    0.3112308382987976    0.4168337583541870 Br
   0.7151228189468384    0.0349366888403893    0.6619199514389038 Br
   0.2145949751138687    0.8107503652572632    0.8957048654556274 Br
   0.7149229645729065    0.5878338813781738    0.6620952486991882 Br
