Na4 Li3 V1 Si1 P2 O13                   
   1.00000000000000     
     5.5622143315394084    0.0077096740393545    0.5958176390756795
    -0.0915533338453670    6.3121069883077148    0.9207824694985903
    -0.0642799439920330   -0.0191339714747459    9.5826463352165554
   Na   Li   V    Si   P    O 
     4     3     1     1     2    13
Direct
  0.5597858217269329  0.8727535003140865  0.7632753703866705
  0.0253962359750057  0.4250935481789114  0.5964268287001401
  0.1424002930596461  0.4365044374888513  0.2569187241592587
  0.0181001654662520  0.0770085360313644  0.9596754578524798
  0.6857865683254702  0.5214016756179209  0.1409687486778975
  0.5362814019438953  0.3379789272396457  0.8151800813557372
  0.0792092948693546  0.9409565498891904  0.3941614588688890
  0.5636390063172416  0.2014791008402337  0.4590528322365318
  0.5464631537889237  0.7247870293797810  0.3815953195449113
  0.0285030323561806  0.5860575671558753  0.8721540739869112
  0.4757675440776344  0.0520078739511259  0.1336173287955064
  0.9972730362758422  0.5579629188008641  0.0456170477825528
  0.6902302266131278  0.9186979978549408  0.4506435573570909
  0.7750004493648387  0.5696933706137493  0.8139264937118061
  0.2688170191026018  0.1901210669534599  0.4630284863830000
  0.6364923532270559  0.2106530348809051  0.6234615727259536
  0.5756805080178787  0.0846957242218706  0.9746865217780333
  0.5935331781248818  0.2197427650869009  0.2174036404222025
  0.1950231735030102  0.4037393212760632  0.8205873797440165
  0.2039574769191681  0.0516905237603826  0.1712355747604038
  0.1444062768030245  0.8201333446839912  0.8172043669938616
  0.5773131056316464  0.8140717137454535  0.2018825163224281
  0.2659604032295699  0.6855420553768857  0.4350670298763522
  0.7054908924773768  0.4931954522660767  0.3877197317705376
 
  0.00000000E+00  0.00000000E+00  0.00000000E+00
  0.00000000E+00  0.00000000E+00  0.00000000E+00
  0.00000000E+00  0.00000000E+00  0.00000000E+00
  0.00000000E+00  0.00000000E+00  0.00000000E+00
  0.00000000E+00  0.00000000E+00  0.00000000E+00
  0.00000000E+00  0.00000000E+00  0.00000000E+00
  0.00000000E+00  0.00000000E+00  0.00000000E+00
  0.00000000E+00  0.00000000E+00  0.00000000E+00
  0.00000000E+00  0.00000000E+00  0.00000000E+00
  0.00000000E+00  0.00000000E+00  0.00000000E+00
  0.00000000E+00  0.00000000E+00  0.00000000E+00
  0.00000000E+00  0.00000000E+00  0.00000000E+00
  0.00000000E+00  0.00000000E+00  0.00000000E+00
  0.00000000E+00  0.00000000E+00  0.00000000E+00
  0.00000000E+00  0.00000000E+00  0.00000000E+00
  0.00000000E+00  0.00000000E+00  0.00000000E+00
  0.00000000E+00  0.00000000E+00  0.00000000E+00
  0.00000000E+00  0.00000000E+00  0.00000000E+00
  0.00000000E+00  0.00000000E+00  0.00000000E+00
  0.00000000E+00  0.00000000E+00  0.00000000E+00
  0.00000000E+00  0.00000000E+00  0.00000000E+00
  0.00000000E+00  0.00000000E+00  0.00000000E+00
  0.00000000E+00  0.00000000E+00  0.00000000E+00
  0.00000000E+00  0.00000000E+00  0.00000000E+00
