Na4 Sn1 O4
1.0
   3.2380518913269043    0.0000000000000000   -0.0191721189767124
  -1.6211318549922566    4.7538979491384854    2.9044518470764165
   0.0000000000000000    0.0000000000000000    7.9906120300292969
Na Sn O
4 1 4
direct
   0.0263967067003250    0.2404637336730957    0.2967420220375062 Na
   0.1935760527849197    0.5736783742904663    0.5180264711380005 Na
   0.7726932764053344    0.7295489907264708    0.0989778563380242 Na
   0.6056530475616455    0.3968812525272369    0.8777239918708803 Na
   0.4000849425792693    0.9851953983306884    0.6981228590011598 Sn
   0.2120869457721710    0.6074872016906738    0.9640874266624452 O
   0.9726638197898864    0.1341710984706879    0.7958238720893861 O
   0.8265675902366637    0.8369134068489074    0.6003468632698060 O
   0.5885298252105713    0.3627053797245025    0.4321184456348421 O
