Na1 Sr1 Hf1 W1 O6
1.0
   4.9675149917602539    0.0000000000000000    2.8681528568267822
   1.6575982692131666    4.6809825123455635    2.8737030029296875
   0.0000000000000000    0.0000000000000000    5.7311987876892090
Na Sr Hf W O
1 1 1 1 6
direct
   0.4774805009365082    0.3188804984092712    0.2592905759811402 Na
   0.9776753783226013    0.8193811178207397    0.7600917816162109 Sr
   0.7277027964591980    0.5693222284317017    0.5104517936706544 Hf
   0.2276428490877151    0.0691934004426003    0.0097070019692183 W
   0.4737567305564880    0.8225085139274597    0.2564766705036164 O
   0.4736773073673249    0.3150913119316101    0.7636566758155823 O
   0.9815796017646790    0.8228819370269775    0.2558439671993256 O
   0.9817354083061218    0.3147398233413696    0.2561194896697998 O
   0.4736062884330750    0.8227813243865967    0.7639797329902649 O
   0.9812433123588562    0.3153468370437622    0.7633759975433352 O
