Generated by VASPKIT code
 1.000000
    5.3914443500077986   -0.0184260159129671    1.8154742161104467
    2.7153383557653248    8.5063567554147657    0.9581754786248272
   -0.0191769660451184    0.0042217670886552    8.9762887041405452
   Cd   O 
     2     9
Direct
    0.0148143188757083    0.8954984701766429    0.6224024191177735    Cd001
    0.3474659842065403    0.5634169075286158    0.2894830156668198    Cd002
    0.7688673257981692    0.0627753055146455    0.4571217690709350     O001
    0.4348377892325171    0.0629992151659129    0.1224772694184871     O002
    0.4291720272825794    0.7295017909409328    0.4558598848370428     O003
    0.1033865566255180    0.7283901148173584    0.1225224815804446     O004
    0.4344443065394469    0.3962781563447546    0.7893545190019315     O005
    0.7665285868766784    0.3954947921820753    0.1216972002450255     O006
    0.0981257122924751    0.0635585749394499    0.7904872207187758     O007
    0.7685000172598043    0.7307313925934482    0.7894398526490857     O008
    0.1034073700349982    0.3960608982600548    0.4549109002841399     O009
