Generated by VASPKIT code
 1.000000
    5.8368047768261979    0.0002310563121575    3.3429091683064902
    1.9561255644717326    4.9353495759587860    3.3539672075200473
    0.0183548555666903    0.0026015138348101    6.7297068864659977
   Cr   Re   O 
     1     1     8
Direct
    0.8559549120439690    0.1719887725438785    0.7093869719425033    Cr001
    0.1068590255273415    0.4166241406851674    0.9628291917171571    Re001
    0.7844240776770200    0.5320243090922305    0.0661488905657048     O001
    0.7599708107548907    0.0589143106147432    0.6131113089790627     O002
    0.7601957740972343    0.0579388962847530    0.0143998944979328     O003
    0.2272439403949216    0.0565502962102660    0.0828301150096045     O004
    0.1612410089497142    0.0580765884697861    0.6136579187587283     O005
    0.7417080742507157    0.5147310638823891    0.5955322154060192     O006
    0.2108609810622740    0.5318205839094956    0.0660568430900982     O007
    0.2105949430232124    0.5314875308802176    0.6407472807309732     O008
