Generated by VASPKIT code
 1.000000
    4.9419979699149232   -0.0030310341339655    2.8535703318425605
    1.6477744110631216    4.6559233199347538    2.8564139198380780
   -0.0006928289535545   -0.0037702734835789    5.7032616934813705
   Sr   Hf   W    O 
     1     1     1     6
Direct
    0.9777258391150012    0.8193362441102707    0.7600910776899080    Sr001
    0.7276282959103858    0.5690304696047143    0.5100825323178617    Hf001
    0.2276735124339531    0.0690406641154920    0.0099561742808306     W001
    0.4709056213030384    0.8255660880606744    0.2534044655278834     O001
    0.4709751703502552    0.3123175669495373    0.7665138492787152     O002
    0.9842559341143061    0.8257147971173924    0.2530630574128159     O003
    0.9843585465437329    0.3122838604227181    0.2533956558420047     O004
    0.4708939782812394    0.8255935812914525    0.7666289199928894     O005
    0.9841950250108197    0.3123225665390627    0.7665131059503749     O006
