Ba1 Na3 Cu6 Sb1 S11
1.0
   6.5026712417602539    0.0000000000000000   -0.2746829986572265
  -2.5411965269508983    6.3792492798560367   -0.0303420778363942
   0.0000000000000000    0.0000000000000000   12.1583213806152344
Ba Na Cu Sb S
1 3 6 1 11
direct
   0.2242305874824524    0.4900112748146057    0.3741715252399445 Ba
   0.6531831026077269    0.3482429683208466    0.1063067317008972 Na
   0.6787815690040587    0.6643060445785522    0.6626783013343811 Na
   0.4413568377494811    0.1221927553415298    0.7857906818389893 Na
   0.8480501174926757    0.8245184421539308    0.3212310075759888 Cu
   0.3504448235034942    0.8084739446640016    0.1360821425914764 Cu
   0.5205516219139099    0.1561253368854523    0.4243015944957733 Cu
   0.9995975494384765    0.1859972476959229    0.6071810126304626 Cu
   0.8801803588867186    0.8712953925132751    0.9485538601875306 Cu
   0.0987850502133369    0.0926840528845787    0.1368099004030228 Cu
   0.0895928815007210    0.4577034115791320    0.8892865180969239 Sb
   0.2585410475730896    0.6882932782173158    0.7243795394897461 S
   0.3632585406303405    0.2452551275491714    0.5761070847511292 S
   0.7273677587509154    0.9086309671401978    0.1351150870323181 S
   0.1770786345005035    0.4474443495273590    0.1141104102134705 S
   0.7312954664230346    0.9608638882637024    0.4741648137569428 S
   0.2337309420108795    0.9629301428794861    0.2931450605392456 S
   0.0340277254581451    0.5545565485954285    0.5996189713478088 S
   0.8946245908737182    0.0953748673200607    0.7940688133239746 S
   0.7103128433227538    0.4628762602806091    0.3289910852909088 S
   0.7240670323371886    0.5258232355117798    0.8929272890090943 S
   0.2597165107727051    0.9831908345222473    0.9940320849418641 S
