Na8 Re2 O10
1.0
   5.2577776908874512    0.0000000000000000    1.7752621173858638
   1.7112726804599410    5.3158587882562429    0.5978122353553775
   0.0000000000000000    0.0000000000000000    8.7044134140014648
Na Re O
8 2 10
direct
   0.3294772505760193    0.0957500487565994    0.5108679533004761 Na
   0.0395756475627422    0.5956565141677856    0.0873151347041130 Na
   0.4325643777847290    0.5964651703834534    0.3052107095718384 Na
   0.9289847612380981    0.0944444462656975    0.3165087103843690 Na
   0.6351363658905028    0.5948748588562012    0.8981811404228210 Na
   0.8383787870407104    0.5955023169517517    0.4926562309265137 Na
   0.1361373811960220    0.0951922461390495    0.8986154794692993 Na
   0.7274767160415649    0.0956757217645645    0.7119204998016357 Na
   0.5062855482101440    0.0959909483790398    0.1598297357559204 Re
   0.2376130968332291    0.5957785844802856    0.6934306025505066 Re
   0.3396926224231720    0.8988723158836365    0.1008598282933235 O
   0.0274097640067339    0.3860810995101929    0.6924127340316771 O
   0.7301865816116334    0.2935255169868469    0.1004158481955528 O
   0.6830279827117920    0.8681076765060425    0.2745901644229889 O
   0.3585701882839202    0.3918790221214294    0.8574169278144836 O
   0.1071545630693436    0.8068963289260864    0.5296373963356018 O
   0.4496496617794037    0.8042830228805541    0.6914913058280945 O
   0.2122927308082581    0.3246558904647827    0.2728570699691772 O
   0.5314673781394958    0.3853848278522491    0.5299537777900696 O
   0.9520134925842285    0.7998158931732177    0.8570306301116943 O
