Generated by VASPKIT code
 1.000000
    6.7160110658104069   -0.0750564428307238    2.1806955315726650
    0.3778893545375869    6.1073698875330917   -3.1635492278812674
   -0.6606474816667941   -0.2578133532908449    5.7569427311717583
   Fe   O 
     1     5
Direct
    0.2844911564650733    0.2377690706604747    0.5669385815958159    Fe001
    0.2920086896757945    0.9531461300713442    0.2833418006103612     O001
    0.2646004216731682    0.4426935175299288    0.4663252637020074     O002
    0.7697282234291302    0.6699425603195078    0.2958663914993009     O003
    0.4968462970789694    0.3000209321980835    0.7211967064181014     O004
    0.0951356923419257    0.2690861885065366    0.8395339629562831     O005
