Na2 Ca2 Ta2 Sn2 O12
1.0
   5.5005493164062500    0.0000000000000000   -0.0111835021525625
  -0.0006159569829381    5.6347975394235270   -0.0104448357597011
   0.0000000000000000    0.0000000000000000    7.8883204460144043
Na Ca Ta Sn O
2 2 2 2 12
direct
   0.2807640731334686    0.6121655106544495    0.7702159285545348 Na
   0.7810015678405762    0.0485498867928982    0.2694213986396790 Na
   0.7623838782310486    0.1349194496870041    0.7703756690025328 Ca
   0.2624595165252686    0.5274352431297302    0.2699390947818756 Ca
   0.7721722126007080    0.5858600735664368    0.0189146474003792 Ta
   0.2719780504703522    0.0759739726781845    0.5191553235054016 Ta
   0.2715061008930206    0.0764324963092804    0.0203573778271675 Sn
   0.7722200155258179    0.5846610665321350    0.5199522376060486 Sn
   0.5689918398857117    0.8866217732429504    0.5698006153106689 O
   0.0848002880811691    0.7875466942787170    0.4707446992397308 O
   0.6778925657272339    0.6081994175910950    0.2626449167728424 O
   0.0709778964519501    0.7737113237380980    0.0683863162994385 O
   0.3540258109569550    0.1080693155527115    0.2762935161590576 O
   0.1780266314744949    0.0564728751778603    0.7633484005928038 O
   0.4927564561367035    0.3759620189666747    0.9789801836013793 O
   0.8529144525527954    0.5545131564140320    0.7767947316169738 O
   0.9796677231788635    0.2999137938022614    0.0634559169411659 O
   0.5851310491561890    0.8755476474761962    0.9701195955276488 O
   0.9916984438896179    0.2863864004611969    0.4789082705974578 O
   0.4782149791717529    0.3625562191009521    0.5621506571769714 O
