Na8 Mo2 O8                              
   1.00000000000000     
     5.8509239918985676    0.0109912521933656   -1.5723413956411767
    -1.3882643339231047    5.5762318671708693   -1.6416121320858312
    -0.0409146031569346   -0.0564224680494641    8.7803031412179671
   Na   Mo   O 
     8     2     8
Direct
  0.1518421059268066  0.5586958116980799  0.5750137773899530
  0.8982535103907724  0.4884515279500740  0.8500708436824972
  0.7653572117817689  0.8790169175077068  0.7049577745345174
  0.4897782700090051  0.7621958220680890  0.9318880080612693
  0.1424843533921539  0.0726018681069467  0.0700978417601572
  0.9699907235829053  0.9797105550509253  0.3622215962747761
  0.3784806102821527  0.6122798695847369  0.2869701358552726
  0.2948893119421916  0.1195215016032366  0.7463354929341194
  0.7532313375105001  0.3533514333626127  0.1544169778623440
  0.5724478415433408  0.2255129562611042  0.5053865195642138
  0.6965471139371269  0.6513321810934308  0.1515282633028134
  0.5312100938739996  0.2607560835180386  0.2771769302361167
  0.5270062091562655  0.4760485412596431  0.6653646642111090
  0.7041280404274909  0.1518038528168061  0.9408421834010523
  0.3570505655073381  0.9498193162435803  0.4813872480469467
  0.1237698697825858  0.8113117523125863  0.8231415275760704
  0.8740931353510693  0.1940623409357002  0.5929732007244009
  0.0442477299033313  0.3402695750311974  0.2818621994664422
 
  0.00000000E+00  0.00000000E+00  0.00000000E+00
  0.00000000E+00  0.00000000E+00  0.00000000E+00
  0.00000000E+00  0.00000000E+00  0.00000000E+00
  0.00000000E+00  0.00000000E+00  0.00000000E+00
  0.00000000E+00  0.00000000E+00  0.00000000E+00
  0.00000000E+00  0.00000000E+00  0.00000000E+00
  0.00000000E+00  0.00000000E+00  0.00000000E+00
  0.00000000E+00  0.00000000E+00  0.00000000E+00
  0.00000000E+00  0.00000000E+00  0.00000000E+00
  0.00000000E+00  0.00000000E+00  0.00000000E+00
  0.00000000E+00  0.00000000E+00  0.00000000E+00
  0.00000000E+00  0.00000000E+00  0.00000000E+00
  0.00000000E+00  0.00000000E+00  0.00000000E+00
  0.00000000E+00  0.00000000E+00  0.00000000E+00
  0.00000000E+00  0.00000000E+00  0.00000000E+00
  0.00000000E+00  0.00000000E+00  0.00000000E+00
  0.00000000E+00  0.00000000E+00  0.00000000E+00
  0.00000000E+00  0.00000000E+00  0.00000000E+00
