Generated by VASPKIT code
 1.000000
    3.8935340432020884   -0.0064819777906321    0.0096382613060297
   -1.9332183341463864    6.4900021749949843   -1.2713415030349320
   -0.0154850456074002   -0.0503423475073288    6.8891674632818818
   Cd   O 
     1     4
Direct
    0.1157109429033986    0.0635561182933038    0.6423468529520815    Cd001
    0.2832752540254470    0.3990865996867634    0.6997949602671582     O001
    0.5568549623370207    0.9451432281241775    0.4493011659595567     O002
    0.7818803194732294    0.3961136594159274    0.1679988356040152     O003
    0.0296345033269464    0.8924128617085945    0.8963633908473574     O004
