Na6 Tl2 As4
1.0
   4.5173034667968750    0.0000000000000000   -0.0091170910745860
  -0.0203937760479066    8.5368532727258337   -0.2694990038871768
   0.0000000000000000    0.0000000000000000    7.5245451927185059
Na Tl As
6 2 4
direct
   0.9014524817466736    0.2787140011787415    0.4586391746997833 Na
   0.4015851318836212    0.4141099750995636    0.7590613365173340 Na
   0.9012064337730408    0.6695696115493774    0.5776610970497131 Na
   0.4004558920860291    0.0233046319335699    0.6423788666725159 Na
   0.9024381637573242    0.5157421231269836    0.0919953361153603 Na
   0.4023105800151825    0.1800731718540192    0.1274139732122421 Na
   0.9015831351280212    0.9258128404617310    0.9615426063537598 Tl
   0.4011902511119843    0.7704579830169678    0.2589041590690613 Tl
   0.4019109904766083    0.7401930093765258    0.8843034505844116 As
   0.4002266526222229    0.4716981351375579    0.3707714080810547 As
   0.9012134671211243    0.9545844197273253    0.3368036448955536 As
   0.8995829820632935    0.2215687781572342    0.8462632894515991 As
