Na2 Mg1 Tl1 B1 S1 O7
1.0
   5.0668692588806152    0.0000000000000000    0.1161129474639888
  -0.7585442698527289    5.3923699683280173   -0.0914493203163145
   0.0000000000000000    0.0000000000000000    7.6250329017639160
Na Mg Tl B S O
2 1 1 1 1 7
direct
   0.1015613824129105    0.4346454739570618    0.8896979093551637 Na
   0.6603631973266602    0.3848498165607452    0.2302511185407639 Na
   0.0862425565719604    0.9033541083335876    0.1699888408184052 Mg
   0.1933476328849792    0.9135776162147521    0.6081008315086366 Tl
   0.1598399281501770    0.4059298038482665    0.4118813574314118 B
   0.6679224967956543    0.8969789147377014    0.9378619194030763 S
   0.3787630498409271    0.8702177405357360    0.9888728260993959 O
   0.6845417022705078    0.9184594154357910    0.7390139102935792 O
   0.8250795006752014    0.1104282364249229    0.0310375038534403 O
   0.2287902534008026    0.1959547400474548    0.3196536302566529 O
   0.1700345724821091    0.4152773320674896    0.5960740447044374 O
   0.7848072052001953    0.6785796284675598    0.0053414884023368 O
   0.0914743244647980    0.6001666188240051    0.3154651820659638 O
