Generated by VASPKIT code
 1.000000
    5.6708175982373756    0.0053488273875184   -0.0076913179393503
   -2.8404856877523073    4.9078533508725624    0.0050836018096375
    0.0066015397707224    0.0030580358997970    7.6421188693068922
   Sr   Nd   W    O 
     1     1     2     9
Direct
    0.5963942704690580    0.4739592592169691    0.1931308772942273    Sr001
    0.5965161706302062    0.4745173312151891    0.6854565162662878    Nd001
    0.9298380526790767    0.1408249186796968    0.3543259304641193     W001
    0.2631074227072753    0.8073554789364118    0.0289681915572364     W002
    0.6011425811569251    0.9749161891404055    0.1798128179304774     O001
    0.0954631522549824    0.9755248518365212    0.1796684422289292     O002
    0.0930487422717107    0.4675665729547271    0.1801443753774523     O003
    0.4249642225920982    0.1277531617394496    0.8962388268157165     O004
    0.4224717848907581    0.6440106835237147    0.8975521525279019     O005
    0.7685848904223996    0.8165683046215179    0.4716531362609387     O006
    0.2528073845776510    0.3008019517263402    0.4724141311907197     O007
    0.9414122570366102    0.6463879821403461    0.8969517842625057     O008
    0.7680765775833246    0.3005522244013150    0.4733289610873009     O009
