Na2 Fe2 Si5 O14
1.0
   6.5320148468017578    0.0000000000000000    0.1554739773273473
  -0.0500402338197160    5.1618630154923402   -1.4157936573028580
   0.0000000000000000    0.0000000000000000   10.3831167221069336
Na Fe Si O
2 2 5 14
direct
   0.3188241422176361    0.2314328253269196    0.7491126656532288 Na
   0.9357714056968689    0.7380618453025818    0.2095753103494644 Na
   0.3153240382671356    0.7355999350547791    0.7596654295921326 Fe
   0.6916463971138000    0.6355469822883607    0.9593322873115540 Fe
   0.9868083596229553    0.1395709961652756    0.9749727249145508 Si
   0.6774485111236572    0.8610468506813049    0.5511164665222168 Si
   0.4622229933738708    0.7792271971702576    0.2688382267951965 Si
   0.1935539841651917    0.2726436555385590    0.2698506116867065 Si
   0.9533138275146484    0.3721903562545776    0.5514222383499146 Si
   0.0727161467075348    0.1566533595323563    0.1318392157554626 O
   0.1435495913028717    0.4664380550384521    0.6492107510566711 O
   0.5921876430511475    0.6598363518714905    0.1373112648725510 O
   0.0308604873716831    0.2739953994750977    0.3910224139690399 O
   0.4709356725215912    0.8913035392761230    0.6409803032875061 O
   0.4860842525959015    0.5637408494949341    0.8416032195091246 O
   0.8281344771385193    0.1241565346717834    0.5862886309623718 O
   0.7888795137405396    0.9508826732635499    0.9548555016517639 O
   0.1683327704668045    0.0103319417685270    0.8690019845962523 O
   0.3755027651786804    0.0747380778193474    0.2768018245697021 O
   0.6237518787384033    0.8104656934738159    0.3921174108982086 O
   0.2667320072650909    0.5781500339508057    0.2812179028987885 O
   0.9293861985206604    0.4327372014522552    0.9706306457519531 O
   0.8008314967155457    0.6128743290901184    0.5646785497665405 O
