Na12 Mn2 S7 O1                          
   1.00000000000000     
     6.8744130000274275   -0.0349264128437323   -0.0666244559638252
     0.0331830375492689    6.6861561267270959    0.0357185205776842
    -0.0690170595631589   -0.0239303133771607    9.8132700240654795
   Na   Mn   S    O 
    12     2     7     1
Direct
  0.8210083268150504  0.5077085281761031  0.8595814449236073
  0.9705340900390175  0.9289061887533402  0.5098928009988097
  0.3180979762186512  0.6043646884527519  0.6626791898644077
  0.2658481553092232  0.6513543021986992  0.0153080984696409
  0.8376295233835747  0.5232836631421066  0.1733874046982735
  0.1748661881617485  0.1761819296246451  0.7641567450444731
  0.4758574462122127  0.1875740951649714  0.0110271432672090
  0.6731230844929466  0.9365182354829604  0.7585399150387098
  0.6908016334425024  0.9370168855085687  0.2623326027172682
  0.3050014764786363  0.6132388086946149  0.3464163209004703
  0.7649238393378414  0.4654800741302840  0.5134226425585552
  0.1758514611187245  0.1456018966112918  0.2565512410779395
  0.9563831167233156  0.9360157464070858  0.0248407188224440
  0.4485074117118653  0.1700278739380268  0.5092961530541273
  0.0629244279342213  0.2614563516801096  0.0134462774252046
  0.6430132166818266  0.8104138060440732  0.0125645024264053
  0.1387554457390362  0.3029772197196315  0.5068095393421695
  0.5587215429599265  0.8505336253046605  0.5079952805142707
  0.0451514607858678  0.8180127269413392  0.8046290067773681
  0.5455436091559618  0.2975343896213728  0.3032096816247060
  0.5450603973109016  0.2961931482953157  0.7183615411361829
  0.0355989577736702  0.8273882103980179  0.2011881773162998
 
  0.00000000E+00  0.00000000E+00  0.00000000E+00
  0.00000000E+00  0.00000000E+00  0.00000000E+00
  0.00000000E+00  0.00000000E+00  0.00000000E+00
  0.00000000E+00  0.00000000E+00  0.00000000E+00
  0.00000000E+00  0.00000000E+00  0.00000000E+00
  0.00000000E+00  0.00000000E+00  0.00000000E+00
  0.00000000E+00  0.00000000E+00  0.00000000E+00
  0.00000000E+00  0.00000000E+00  0.00000000E+00
  0.00000000E+00  0.00000000E+00  0.00000000E+00
  0.00000000E+00  0.00000000E+00  0.00000000E+00
  0.00000000E+00  0.00000000E+00  0.00000000E+00
  0.00000000E+00  0.00000000E+00  0.00000000E+00
  0.00000000E+00  0.00000000E+00  0.00000000E+00
  0.00000000E+00  0.00000000E+00  0.00000000E+00
  0.00000000E+00  0.00000000E+00  0.00000000E+00
  0.00000000E+00  0.00000000E+00  0.00000000E+00
  0.00000000E+00  0.00000000E+00  0.00000000E+00
  0.00000000E+00  0.00000000E+00  0.00000000E+00
  0.00000000E+00  0.00000000E+00  0.00000000E+00
  0.00000000E+00  0.00000000E+00  0.00000000E+00
  0.00000000E+00  0.00000000E+00  0.00000000E+00
  0.00000000E+00  0.00000000E+00  0.00000000E+00
