Na9 Zn1 Ga5 Ni1 H1 F30
1.0
   6.5326299667358398    0.0000000000000000    0.0237735062837605
  -1.2306975787203098    5.4093274702537020    0.2014776766300191
   0.0000000000000000    0.0000000000000000   16.1419048309326172
Na Zn Ga Ni H F
9 1 5 1 1 30
direct
   0.8950818777084351    0.5073485970497131    0.8259301185607910 Na
   0.7575978040695190    0.6895880103111267    0.5632123351097107 Na
   0.0301424879580736    0.8122811317443847    0.2949046492576599 Na
   0.3201159536838531    0.0975078046321869    0.4687202572822571 Na
   0.7382635474205017    0.6509925723075867    0.1094803363084793 Na
   0.3631588816642761    0.0376234315335751    0.0493579134345055 Na
   0.3829464912414551    0.7094402909278870    0.7224366664886475 Na
   0.6945579648017883    0.1845486164093018    0.2410062998533249 Na
   0.0600915439426899    0.1687751412391663    0.6522603034973145 Na
   0.4549887180328369    0.6162524819374084    0.9114501476287842 Zn
   0.2161899507045746    0.4236333668231964    0.1698537617921829 Ga
   0.5656529068946838    0.1972036659717560    0.6507740020751953 Ga
   0.4956143796443939    0.6602606773376465    0.3566454648971558 Ga
   0.2092926204204559    0.0842152014374733    0.8350162506103516 Ga
   0.8185974955558777    0.2095216959714890    0.4439600408077239 Ga
   0.8749041557312012    0.1187814250588417    0.0070339990779757 Ni
   0.1508657485246658    0.5419143438339232    0.4549114406108856 H
   0.5968953371047974    0.8284848332405090    0.9894621372222900 F
   0.8128761053085327    0.4138118028640747    0.6732662320137024 F
   0.9526165127754211    0.0976562052965164    0.8913946747779846 F
   0.3601487576961517    0.2617279291152954    0.9201549887657166 F
   0.6312201619148254    0.3659510314464569    0.3713068068027496 F
   0.4270007312297821    0.4445228576660156    0.6357270479202271 F
   0.1048756167292595    0.1012635454535484    0.1955620944499969 F
   0.9888014197349548    0.0795544534921646    0.5184985399246216 F
   0.4706277847290039    0.3399313092231750    0.1456112861633301 F
   0.6446769833564758    0.2763397395610809    0.5282969474792480 F
   0.9758367538452148    0.5484274029731750    0.4545170068740845 F
   0.1646282076835632    0.3608281612396240    0.7754914164543152 F
   0.7448722720146179    0.0798837468028069    0.1080253124237061 F
   0.3483687639236450    0.9096376895904541    0.3455998003482819 F
   0.2403198629617691    0.7832211256027222    0.8887177109718323 F
   0.7644543051719666    0.3786953985691070    0.9746583700180054 F
   0.6819240450859070    0.7711738944053649    0.2738801836967468 F
   0.4728256165981293    0.1176232919096947    0.7666214108467102 F
   0.0768484398722649    0.8788723349571228    0.7565240859985352 F
   0.3497267663478851    0.7444791793823242    0.1458553522825241 F
   0.7044621109962463    0.9468230009078979    0.6566459536552429 F
   0.3051469922065735    0.4624740779399871    0.2866915166378021 F
   0.3346295654773712    0.9789947867393494    0.6105672717094421 F
   0.0139044187963009    0.8896213769912719    0.0324968993663788 F
   0.9523367285728455    0.1506078839302063    0.3536752164363861 F
   0.6469117403030396    0.8741494417190552    0.4440904855728149 F
   0.1361647695302963    0.3702503740787506    0.0561398304998875 F
   0.9682973623275757    0.5151745676994324    0.1989576667547226 F
   0.6166826486587524    0.6472753286361693    0.8191671967506409 F
   0.3234771788120270    0.5139419436454773    0.4511458575725555 F
