Na5 Cu1 Bi1 C6 O18
1.0
   7.2914905548095703    0.0000000000000000   -2.0474004745483416
  -3.3347257039441169    6.6741822734105858   -2.5315496921539311
   0.0000000000000000    0.0000000000000000    8.3777732849121094
Na Cu Bi C O
5 1 1 6 18
direct
   0.9820336103439331    0.7984130978584290    0.3227108716964722 Na
   0.6866477727890015    0.9751194715499877    0.1920118331909179 Na
   0.1740035563707352    0.5844621658325195    0.9662767648696899 Na
   0.2655300199985504    0.4515251517295837    0.5197184681892395 Na
   0.6135661602020264    0.1934255063533783    0.7476976513862610 Na
   0.7797737121582031    0.4813144505023956    0.5390324592590332 Cu
   0.1106725484132767    0.0891228094696999    0.9980272054672241 Bi
   0.3849706351757050    0.0632011517882347    0.2965294122695923 C
   0.2302360683679581    0.8930531144142151    0.7159293293952942 C
   0.8957286477088928    0.3830812275409698    0.1889957636594772 C
   0.5077454447746277    0.5668354034423828    0.2773482501506805 C
   0.9698909521102905    0.2164619863033295    0.6355054378509521 C
   0.6725028157234192    0.6569432020187378    0.8629505038261414 C
   0.3250900506973267    0.4498912096023560    0.1448329836130142 O
   0.3406666219234467    0.9341618418693542    0.1331074088811874 O
   0.2680045664310455    0.8166084289550781    0.5746936202049255 O
   0.2541731595993042    0.1277783960103989    0.3175354599952698 O
   0.9955415129661560    0.3972645699977875    0.6455007791519165 O
   0.9369139671325684    0.1795400232076645    0.7673232555389404 O
   0.8264449834823608    0.4416633248329163    0.3131556510925293 O
   0.4922801554203033    0.6418907046318054    0.8396925926208496 O
   0.5623654127120972    0.1383697390556335    0.4257695972919464 O
   0.0608899071812630    0.8020417690277100    0.7298909425735474 O
   0.8391695022583008    0.8120031952857971    0.0025968477129936 O
   0.3574182987213135    0.0781481787562370    0.8462951779365540 O
   0.6935217380523682    0.5118386149406433    0.7478166222572327 O
   0.9483717083930969    0.2427742779254913    0.1808826774358749 O
   0.9103082418441772    0.4690819084644318    0.0823632404208183 O
   0.6293936967849731    0.7071069478988647    0.2599512636661530 O
   0.9862064719200134    0.0977269858121872    0.5062850713729858 O
   0.5531840920448303    0.5446138381958008    0.4313234984874725 O
