Na6 Cd1 O4
1.0
   3.8517589569091797    0.0000000000000000    0.0181631725281473
  -1.9047533450793701    6.3968298875950600   -1.2093648910522468
   0.0000000000000000    0.0000000000000000    6.7836475372314453
Na Cd O
6 1 4
direct
   0.8459175229072571    0.5214271545410156    0.8729973435401917 Na
   0.7510412335395813    0.3303445279598237    0.4715328514575958 Na
   0.2319988161325455    0.2997896671295166    0.0376742221415043 Na
   0.9562339186668396    0.7427006959915161    0.2730170190334320 Na
   0.5930007100105286    0.0192362666130066    0.1112578734755516 Na
   0.4585364162921906    0.7498351931571960    0.7134053111076355 Na
   0.1103761792182922    0.0558763258159161    0.6348546743392944 Cd
   0.2825090587139130    0.3944045901298523    0.6995677947998047 O
   0.5534836053848267    0.9425955414772034    0.4480877518653870 O
   0.7794534564018250    0.3935317993164063    0.1670251190662384 O
   0.0307435020804405    0.8955555558204651    0.9083465337753297 O
