Na3 Cd1 Ag1 F6
1.0
   6.7823448181152344    0.0000000000000000    1.0961632728576660
   1.7988679255572033    2.7453122795779961   -0.6594584584236146
   0.0000000000000000    0.0000000000000000    8.8455104827880859
Na Cd Ag F
3 1 1 6
direct
   0.4759093523025513    0.4782743752002716    0.5984746813774109 Na
   0.0084690917283297    0.1087730526924133    0.9230601191520689 Na
   0.5407151579856873    0.7382219433784484    0.2485551834106445 Na
   0.5076561570167542    0.1093200892210007    0.9237419962882996 Cd
   0.0087059354409576    0.6056135892868041    0.4235446155071259 Ag
   0.7019396424293518    0.6587570309638977    0.4490553140640259 F
   0.2632355093955994    0.2812502384185790    0.7752674818038940 F
   0.3127222955226898    0.5549689531326294    0.3977199196815491 F
   0.7521769404411316    0.9375405907630919    0.0711453929543495 F
   0.2987112104892731    0.9041514992713927    0.0700371712446213 F
   0.7161197662353516    0.3162680268287658    0.7774314284324646 F
