Na3 Cd1 Sn1 H1 Se1 S3 O17
1.0
   5.0164456367492676    0.0000000000000000    2.2714540958404537
   0.8533396957046693    7.7119450742677840   -2.2570936679840092
   0.0000000000000000    0.0000000000000000   10.8693227767944336
Na Cd Sn H Se S O
3 1 1 1 1 3 17
direct
   0.9957355260848999    0.9884650707244873    0.8544619083404542 Na
   0.2282092422246933    0.1213463172316551    0.5166305899620056 Na
   0.5163111090660095    0.5703375339508057    0.5517845749855042 Na
   0.4053310155868530    0.3691828846931458    0.0608801357448101 Cd
   0.2789329290390015    0.8699090480804443    0.1133939474821091 Sn
   0.2719980478286743    0.5794759392738342    0.9287728667259217 H
   0.8434296250343323    0.5236565470695496    0.7801166176795961 Se
   0.7751822471618652    0.1788708716630936    0.2020588815212250 S
   0.5600848197937012    0.0520817004144192    0.7206155061721802 S
   0.2063400745391846    0.7007986307144165    0.3696847259998322 S
   0.4660794734954834    0.8746542930603027    0.7148044109344482 O
   0.3670162260532379    0.1672329455614090    0.8704245686531068 O
   0.1063058674335480    0.4281863570213318    0.6312186717987061 O
   0.8666865825653076    0.9876592755317688    0.1741309165954590 O
   0.3043828308582305    0.7587543129920959    0.4797863364219666 O
   0.4275768101215363    0.5811040401458740    0.2395099699497223 O
   0.7999352216720581    0.4184471368789673    0.9000828266143800 O
   0.8375630974769592    0.0538037270307541    0.7076737284660339 O
   0.2041303962469101    0.6152283549308777    0.0339895710349083 O
   0.9595032930374146    0.6214324831962585    0.4124878644943238 O
   0.5494470596313477    0.2415850311517715    0.3402894139289856 O
   0.5429288744926453    0.1097559481859207    0.6096991896629333 O
   0.0012728117872030    0.2833537459373474    0.1914730817079544 O
   0.6882696151733398    0.1778988540172577    0.0869094878435135 O
   0.8858193755149841    0.7203750014305115    0.8496730923652650 O
   0.1615245342254639    0.8685178160667419    0.3313301503658295 O
   0.5689173936843872    0.5233330130577087    0.7503083944320680 O
