Generated by VASPKIT code
 1.000000
    6.5642300802324600   -0.2396814545362100    0.1381538295890118
   -0.2393186944054515    4.9162316046741701   -1.6115057728699971
   -0.0309221485838569   -0.4369914354345408   10.2103460763339857
   Fe   Si   O 
     2     5    14
Direct
    0.3625354455168878    0.7757663737765523    0.7876195150504363    Fe001
    0.6829836489277056    0.5576551546023200    0.9436338843537401    Fe002
    0.9854945357914323    0.0911370893200892    0.9743904842223950    Si001
    0.6842227963859746    0.9101393856991311    0.5575938541533855    Si002
    0.4605167492923493    0.7830855017380813    0.2592581406040919    Si003
    0.1874972755496299    0.2585726320054582    0.2683639052200826    Si004
    0.9681109605363384    0.4336897827423154    0.5600058190773001    Si005
    0.0238451501837138    0.1102368729731121    0.1404529683030725     O001
    0.1584599113700320    0.5636605445037314    0.6628950650407442     O002
    0.5926015612197177    0.6302658873340511    0.1261305027109433     O003
    0.0548680620149764    0.2561253900910478    0.4040286022418992     O004
    0.4979690513776181    0.9265282801500264    0.6627344236082872     O005
    0.4680494118845401    0.5498017716253887    0.8491492932577213     O006
    0.8390085692421613    0.1972945589618742    0.6099490668159623     O007
    0.8205983925156934    0.8315218834675965    0.8984183922377216     O008
    0.2089303636454375    0.0460510332255086    0.8993475859769626     O009
    0.3768204991527042    0.0698982901932876    0.2555273772630028     O010
    0.6086285294271983    0.8656294830061111    0.3973980175011823     O011
    0.2585438047487518    0.5768627851109424    0.2759815001729388     O012
    0.9104880534774435    0.3856978014790896    0.9807123391012855     O013
    0.8232392992856986    0.6529053714084357    0.5378370086455545     O014
