Na6 Fe2 O6
1.0
   6.2053380012512207    0.0000000000000000    0.0308838747441763
   3.0712095277223161    5.1957850154474761    0.0418724305927743
   0.0000000000000000    0.0000000000000000    6.1086907386779785
Na Fe O
6 2 6
direct
   0.4996711611747742    0.4629623889923095    0.1038575172424316 Na
   0.7215422987937927    0.5197426080703735    0.5208487510681152 Na
   0.9391067028045654    0.0370370186865330    0.8672885298728943 Na
   0.4979147613048555    0.9629812240600585    0.8486892580986023 Na
   0.7197792530059814    0.0211734659969807    0.4336645901203156 Na
   0.9404821395874023    0.5374696254730225    0.0873555615544319 Na
   0.2392933815717697    0.0493868887424469    0.3415655195713043 Fe
   0.2389044314622880    0.5480983257293701    0.6124215126037598 Fe
   0.5413478016853333    0.3163429796695709    0.7494285702705383 O
   0.5425322055816652    0.8146090507507324    0.2051280885934830 O
   0.9160510897636414    0.1832002848386765    0.2199070900678635 O
   0.9161601662635803    0.6822736859321594    0.7356393337249756 O
   0.2647007107734680    0.3624219298362732    0.3439187407493591 O
   0.2636396586894988    0.8622028231620789    0.6093212962150574 O
