Na2 Zn2 Cu1 As2 H12 O15
1.0
   6.0616159439086905    0.0000000000000000    0.0489627905189992
  -0.8713677890775311    7.3783080645329440    0.2660045027732856
   0.0000000000000000    0.0000000000000000    8.5963315963745117
Na Zn Cu As H O
2 2 1 2 12 15
direct
   0.0495702028274536    0.4083280861377716    0.7145954370498657 Na
   0.9442071318626405    0.3735316693782806    0.2324816584587097 Na
   0.5546293258666992    0.8870370388031006    0.0630058124661446 Zn
   0.5039816498756409    0.3816519081592559    0.4794138371944427 Zn
   0.7032090425491333    0.9869873523712158    0.4172993600368500 Cu
   0.0627694278955459    0.9417119622230529    0.1614750027656555 As
   0.5555247664451599    0.7250853776931763    0.7255420088768005 As
   0.2902999222278595    0.4839220345020294    0.9743537902832031 H
   0.9218009710311891    0.7747601270675658    0.8334782123565674 H
   0.8189042806625366    0.1362313479185104    0.8852053284645081 H
   0.7474403977394104    0.7206318974494934    0.2576395869255066 H
   0.8633465766906738    0.5824663043022155    0.5064007043838501 H
   0.1590401083230972    0.1300437003374100    0.4818916618824005 H
   0.6889095902442932    0.1193600520491600    0.7344196438789368 H
   0.4821073412895203    0.1678800135850906    0.2421745955944061 H
   0.2034826725721359    0.6056685447692871    0.2987499535083771 H
   0.3308512270450592    0.0790417343378067    0.6092167496681213 H
   0.4392552375793457    0.6076847314834595    0.2905081808567047 H
   0.2672407627105713    0.2737044394016266    0.0018165733199567 H
   0.5921686887741089    0.2082145810127258    0.3202135264873505 O
   0.8484795093536376    0.6944693326950072    0.7521917819976807 O
   0.5634604096412659    0.9350699782371521    0.6213579773902893 O
   0.8741196990013123    0.9698553085327148    0.0147409588098526 O
   0.3202931284904480    0.0423223115503788    0.1005311161279678 O
   0.0377532243728638    0.7118282914161682    0.2099175453186035 O
   0.8257651329040527    0.4633665382862091    0.4793421030044556 O
   0.7509762644767761    0.2100378870964050    0.8032969236373901 O
   0.1845964342355728    0.3746841251850128    0.9786247611045837 O
   0.4143124520778656    0.5503151416778564    0.6422845721244812 O
   0.3140447735786438    0.5093259811401367    0.3156678974628448 O
   0.4394126534461975    0.7273883223533629    0.9052782654762268 O
   0.9936084151268006    0.0592975057661533    0.3228799700737000 O
   0.2463802546262741    0.1800413131713867    0.5728515982627869 O
   0.6114562749862671    0.7778698205947876    0.2743097841739655 O
