Na3 Ag1 Pb2 O6                          
   1.00000000000000     
     5.9705882795569325    0.0020939374134681    0.0617459843417618
    -0.0161281244092824    3.4093647781553269   -0.0154692626094459
     0.0396628630407355    0.0037224544592876    8.2294105487032922
   Na   Ag   Pb   O 
     3     1     2     6
Direct
  0.8909450764525079  0.3045302167383627  0.5705885154508606
  0.7423232185056013  0.8045416821996234  0.8864938928034620
  0.2082142227739752  0.3052497862292092  0.9042885930020924
  0.0525717486255088  0.8053806644349375  0.2304220962026834
  0.3817023005776303  0.8053627397523179  0.5834267238375147
  0.5594873792335584  0.3048470915289092  0.2229871059315268
  0.6853429438509117  0.8048191292100354  0.3954118160690882
  0.5424863129329476  0.3055994608230175  0.7176157297210605
  0.4063520522844224  0.8046157126757463  0.0792245872887085
  0.2562573612150904  0.3040959373112571  0.4068954584321999
  0.0749795166401279  0.8047813599162600  0.7194383988229153
  0.8776955910080695  0.3060857357532758  0.0779259663695249
 
  0.00000000E+00  0.00000000E+00  0.00000000E+00
  0.00000000E+00  0.00000000E+00  0.00000000E+00
  0.00000000E+00  0.00000000E+00  0.00000000E+00
  0.00000000E+00  0.00000000E+00  0.00000000E+00
  0.00000000E+00  0.00000000E+00  0.00000000E+00
  0.00000000E+00  0.00000000E+00  0.00000000E+00
  0.00000000E+00  0.00000000E+00  0.00000000E+00
  0.00000000E+00  0.00000000E+00  0.00000000E+00
  0.00000000E+00  0.00000000E+00  0.00000000E+00
  0.00000000E+00  0.00000000E+00  0.00000000E+00
  0.00000000E+00  0.00000000E+00  0.00000000E+00
  0.00000000E+00  0.00000000E+00  0.00000000E+00
