Na12 Te6
1.0
   5.1178798675537109    0.0000000000000000   -0.0051445784047250
   0.0016842802039563    9.1646488549359884    0.2483904063701636
   0.0000000000000000    0.0000000000000000   12.8221454620361328
Na Te
12 6
direct
   0.9345499277114868    0.7069694995880126    0.2640444934368134 Na
   0.9333756566047668    0.8051794171333313    0.5268408656120300 Na
   0.4338722825050354    0.3393608331680298    0.2946333885192871 Na
   0.9327062964439392    0.1214139387011528    0.6784524917602539 Na
   0.9342182874679565    0.1119368076324463    0.1571645140647888 Na
   0.9325000047683716    0.4300697445869445    0.8608307242393494 Na
   0.4341905713081360    0.9565377831459045    0.3546186983585358 Na
   0.9328324198722839    0.7838127613067626    0.0084295468404889 Na
   0.9357432723045349    0.4311918914318085    0.4957956075668335 Na
   0.4332658052444458    0.5645815730094910    0.0517198815941811 Na
   0.4331180453300476    0.9619156122207642    0.8604791760444641 Na
   0.4343368709087372    0.6197652220726013    0.6936260461807251 Na
   0.9344087839126587    0.7859159111976624    0.7748813033103943 Te
   0.4341238439083099    0.2846708893775940    0.7620562911033630 Te
   0.4328265488147736    0.9063537716865540    0.1145746409893036 Te
   0.9343217015266418    0.1249183192849159    0.4167290031909943 Te
   0.9332606792449951    0.4378337860107422    0.1205999255180359 Te
   0.4351560473442078    0.6253507733345032    0.4376718401908875 Te
