Generated by VASPKIT code
 1.000000
    5.6464710078828109   -0.1371142795253003   -0.0566684153013527
    1.0964422281744313    5.5905065176145268   -1.6615942031009439
   -0.2358210685606913   -0.1747293535619369    7.1211927575753018
   Sn   O 
     2     5
Direct
    0.9447664229716731    0.0160654931053174    0.1496997999533163    Sn001
    0.2291937721298047    0.4625794637314701    0.7017147520445453    Sn002
    0.6071223640310255    0.2160158369035971    0.1632221539377653     O001
    0.0872205068725945    0.2400605630047349    0.4248291253498063     O002
    0.5675434600677055    0.2640471300550117    0.6871701762491178     O003
    0.3211176986427499    0.7181050821371775    0.5915585608815216     O004
    0.8505113868982116    0.7618036567928320    0.2604835245000890     O005
