Na8 Zn4 S8
1.0
   6.9988417625427246    0.0000000000000000    0.1084032803773883
  -0.3030433054765778    7.0410251030359667   -0.0095862271264213
   0.0000000000000000    0.0000000000000000    9.1634826660156250
Na Zn S
8 4 8
direct
   0.9167146086692811    0.9361261725425721    0.8910186290740967 Na
   0.3201983571052551    0.3117822408676147    0.3650649785995483 Na
   0.2750499844551086    0.2924663722515107    0.7469527125358582 Na
   0.2048245966434479    0.5266843438148499    0.0493382811546326 Na
   0.3922654092311859    0.8261731863021851    0.7441975474357605 Na
   0.7878955006599426    0.2246233820915222    0.5561988949775696 Na
   0.4203099012374878    0.8269123435020447    0.3708360195159912 Na
   0.7527853846549988    0.4860868453979492    0.2213704437017441 Na
   0.5142265558242798    0.0292610526084900    0.0559434369206429 Zn
   0.9950940608978273    0.9686243534088135    0.2711235284805298 Zn
   0.7106209993362427    0.5036134123802185    0.8255907297134399 Zn
   0.9514048099517823    0.7078345417976379    0.5499693155288696 Zn
   0.6258019208908081    0.1711444109678268    0.8309541940689087 S
   0.1221597716212273    0.0321079045534134    0.5420616269111633 S
   0.1896892040967941    0.1154801622033119    0.0849432870745659 S
   0.0403688028454781    0.5850468277931213    0.7812472581863403 S
   0.5642549395561218    0.6867526769638062    0.0088797938078642 S
   0.6835961937904358    0.1020180359482765    0.2756863832473755 S
   0.0764283388853073    0.6348642110824585    0.3176456391811371 S
   0.6052836179733276    0.5832198858261108    0.5620610117912292 S
