Na1 V1 Cr1 Fe1 P3 C1 O16                
   1.00000000000000     
     5.9956588552755141   -0.0274713126543227   -0.2811782321749762
    -2.6602180533741890    7.0793416062261967    0.3592479219369323
    -0.1860276586750833   -0.0025060786841302    7.5022964109467560
   Na   V    Cr   Fe   P    C    O 
     1     1     1     1     3     1    16
Direct
  0.3006807904439532  0.4800912923847964  0.3524796856792961
  0.5465781861930878  0.4199758543448266  0.7828447351392727
  0.8739820613969581  0.9763040513329889  0.0270396366922900
  0.3065760341055192  0.0081557241220405  0.5141797064523459
  0.0285459296841426  0.3719021858243558  0.7579114598261107
  0.4425050748099999  0.1264586733050699  0.1212640948354607
  0.7316092689955181  0.8359156313933584  0.6364646516720660
  0.0258423808086923  0.7182447680252647  0.2590041772107851
 -0.0101338279945753  0.5635260650575558  0.1938011422555043
  0.2857201545975291  0.4849502035414177  0.8380352413588359
 -0.0045010875972061  0.9258792755304076  0.5944540237778729
  0.0215055213064366  0.3344663446393538  0.5648535856039818
  0.7366769042899779  0.8170275569829883  0.8548597988036687
  0.9311714190470057  0.1882538234627265  0.8841192681919644
  0.6047661977927971  0.6252884608163933  0.5881633953375901
  0.4030785484124245  0.1721503839963748  0.3141755912769189
  0.8749025229527134  0.4917960905769256  0.7993788871100856
  0.4311835580004506  0.2273866772806374  0.6662097978999659
  0.8737893377142131  0.8137548438869021  0.2169887122229174
  0.2002872064163892  0.0085757108669766  0.0255285898413450
  0.5933896098243064  0.9628021624471513  0.5731702101948134
  0.6150253692639146  0.0146834727914916  0.1221547686596322
  0.5431492844880400  0.3196499396145696  0.0223483928306154
  0.2102454345116393  0.7943446193044053  0.3706618527865748
 
  0.00000000E+00  0.00000000E+00  0.00000000E+00
  0.00000000E+00  0.00000000E+00  0.00000000E+00
  0.00000000E+00  0.00000000E+00  0.00000000E+00
  0.00000000E+00  0.00000000E+00  0.00000000E+00
  0.00000000E+00  0.00000000E+00  0.00000000E+00
  0.00000000E+00  0.00000000E+00  0.00000000E+00
  0.00000000E+00  0.00000000E+00  0.00000000E+00
  0.00000000E+00  0.00000000E+00  0.00000000E+00
  0.00000000E+00  0.00000000E+00  0.00000000E+00
  0.00000000E+00  0.00000000E+00  0.00000000E+00
  0.00000000E+00  0.00000000E+00  0.00000000E+00
  0.00000000E+00  0.00000000E+00  0.00000000E+00
  0.00000000E+00  0.00000000E+00  0.00000000E+00
  0.00000000E+00  0.00000000E+00  0.00000000E+00
  0.00000000E+00  0.00000000E+00  0.00000000E+00
  0.00000000E+00  0.00000000E+00  0.00000000E+00
  0.00000000E+00  0.00000000E+00  0.00000000E+00
  0.00000000E+00  0.00000000E+00  0.00000000E+00
  0.00000000E+00  0.00000000E+00  0.00000000E+00
  0.00000000E+00  0.00000000E+00  0.00000000E+00
  0.00000000E+00  0.00000000E+00  0.00000000E+00
  0.00000000E+00  0.00000000E+00  0.00000000E+00
  0.00000000E+00  0.00000000E+00  0.00000000E+00
  0.00000000E+00  0.00000000E+00  0.00000000E+00
