Sr3 Ti2 Nb1 O9
1.0
   3.8880281448364258    0.0000000000000000   -0.0001786132343110
   0.0162139069694670    5.7910096161631284   -0.2174056023359303
   0.0000000000000000    0.0000000000000000    9.9385137557983398
Sr Ti Nb O
3 2 1 9
direct
   0.3810825645923615    0.4538401663303375    0.7276307344436646 Sr
   0.8796941041946411    0.9064009189605713    0.9749842286109924 Sr
   0.3798434734344482    0.0475125759840012    0.3718691766262054 Sr
   0.8811476230621338    0.5333812236785889    0.3786262273788452 Ti
   0.8806060552597046    0.9907982349395752    0.6497761011123657 Ti
   0.3787374794483185    0.4434056580066681    0.1196245476603508 Nb
   0.8816766738891602    0.5269593596458435    0.1682669073343277 O
   0.8794402480125427    0.1988632827997208    0.7928102016448975 O
   0.3796976804733276    0.1295973658561707    0.1003285497426987 O
   0.3807416558265686    0.5015150904655457    0.3345610201358795 O
   0.8800635337829590    0.7188640236854553    0.7334004044532776 O
   0.3786614537239075    0.6200227737426758    0.9672525525093079 O
   0.3794706165790558    0.0219066496938467    0.6158885359764099 O
   0.8805521726608276    0.3064211010932922    0.4984329938888550 O
   0.8815695643424988    0.8232454657554625    0.4417556524276733 O
