Na13 Zn2 Cu1 P5 O22
1.0
   5.8338308334350577    0.0000000000000000   -0.1883279681205755
   0.0179656133221023    8.8146532081016566   -0.2897604107856748
   0.0000000000000000    0.0000000000000000   12.3163146972656250
Na Zn Cu P O
13 2 1 5 22
direct
   0.1063553839921951    0.7122918963432313    0.1960784345865250 Na
   0.9776542186737061    0.3091430962085724    0.0460205674171448 Na
   0.5030215978622437    0.2227301299571991    0.1276745051145554 Na
   0.8467274308204651    0.6675264835357666    0.5984479784965515 Na
   0.6962679028511047    0.8796563148498536    0.8957395553588867 Na
   0.3251742422580719    0.6101856231689453    0.4672106206417084 Na
   0.0779721885919571    0.2482365667819977    0.6038172841072083 Na
   0.6166445612907410    0.8407275080680847    0.1244816407561302 Na
   0.4019796550273895    0.2071240544319153    0.8587603569030762 Na
   0.5901260375976562    0.0038496120832860    0.6070874333381653 Na
   0.8812892436981201    0.5211967229843140    0.8477050662040710 Na
   0.5244251489639282    0.5371409654617310    0.2620279490947723 Na
   0.1639931797981262    0.0195766929537058    0.3318851292133331 Na
   0.3413108289241791    0.6688383817672729    0.7658280730247498 Zn
   0.6886000037193298    0.2332895994186401    0.4023681282997131 Zn
   0.1710283458232880    0.9509533047676088    0.9964122176170349 Cu
   0.6232447624206543    0.8694906830787659    0.3705353438854218 P
   0.4465499818325043    0.5135492682456970    0.9808307290077209 P
   0.5533002614974976    0.3932797610759736    0.6237007379531860 P
   0.1151725202798843    0.9207599759101868    0.7459684014320374 P
   0.0286808721721172    0.3392736017704011    0.2981223762035370 P
   0.5563680529594421    0.3893978595733643    0.4957632422447205 O
   0.0078131826594472    0.9937934279441835    0.6439017653465271 O
   0.4552920162677765    0.2465078979730606    0.6689699292182921 O
   0.3831635415554047    0.8941135406494141    0.7414492368698120 O
   0.6345847249031067    0.3872058987617493    0.9824059009552002 O
   0.4313772022724152    0.5973604321479797    0.0923784002661705 O
   0.7655768990516663    0.3352569043636322    0.2579632401466370 O
   0.2140481472015381    0.4391557276248932    0.9393497109413147 O
   0.8385460376739502    0.8747600317001344    0.3005487024784088 O
   0.4486683607101440    0.0245883129537106    0.0085832383483648 O
   0.6457846164703369    0.7704249620437623    0.4696729481220245 O
   0.1218211799860001    0.5027881264686584    0.3169191777706146 O
   0.4153519272804260    0.8088129758834840    0.2964959442615509 O
   0.3835352659225464    0.5327034592628479    0.6425624489784241 O
   0.5246552228927612    0.6335133314132690    0.8943443894386292 O
   0.9579079747200012    0.8365921378135681    0.0435277745127678 O
   0.0597717873752117    0.0246760100126266    0.8485565185546875 O
   0.0260779336094856    0.2524104714393616    0.4093919396400452 O
   0.1698444336652756    0.2488119751214981    0.2127746641635895 O
   0.7964883446693420    0.4268839061260223    0.6711877584457397 O
   0.5526992678642273    0.0372894108295441    0.4114065170288086 O
   0.0150453476235271    0.7564088106155396    0.7603771686553955 O
