Na19 Mg1 Nb2 Fe1 As11 Se1               
   1.00000000000000     
     8.2984190848592956    0.0116892316813011    1.0215720694375139
    -1.1462509817350521    8.1660744181145883    1.3119106674524506
     0.0181187828083557    0.0178514479149818   12.1732237440543898
   Na   Mg   Nb   Fe   As   Se
    19     1     2     1    11     1
Direct
  0.1896753928574235  0.8523244992055287  0.2260026865769633
  0.0545375842546154  0.3748361264547925  0.3438626868173571
  0.4099918005428927  0.2556152475494596  0.2873972120905710
  0.9687406888321027  0.6181523832694275  0.0133097060058935
  0.0968462401003037  0.2221995409918406  0.6568571349582563
  0.6957362880607950  0.5516425271077948  0.2698004211306337
  0.6367434761420484  0.8374901337446565  0.0411879571193924
  0.4038215108090217  0.1876124246092789  0.0013406590890160
  0.6832198861030337  0.6199648305383103  0.8114214180596838
  0.7770702791844288  0.2679641629080605  0.8808610678666683
  0.4207605985630070  0.0811715377942449  0.5424396159662173
  0.2628619344281325  0.4956838826864681  0.8388579021524154
  0.1284900336935686  0.6932173669386492  0.5041438116843449
  0.1166026321823043  0.8327399210566929  0.7445861530912971
  0.0619602600410414  0.0516136828344625  0.9592076249991905
  0.5511433363667824  0.8595870182302486  0.3552960215987336
  0.7605916598894403  0.3509372079996160  0.5983312546882815
  0.7906549806199845  0.9186276314553268  0.5906628372072886
  0.4570279228786313  0.5181193550778889  0.5440415264917725
  0.3516545887457813  0.5475822347885400  0.1150676405079729
  0.5041323537139356  0.9530274617969492  0.8015310057237706
  0.8228602499376878  0.2201371193872748  0.1697530154116388
  0.9050665682200755  0.9657613664782438  0.3571061798591099
  0.4483062921178864  0.7754381605036004  0.6711121495202704
  0.1056817244757088  0.3344968834939570  0.0904913373261175
  0.8057880898441686  0.9667741794198437  0.8146816797740311
  0.1346505741193566  0.0483661842553879  0.4368242430633173
  0.7269591631230014  0.1870167284170318  0.3771991627763149
  0.9828045937996314  0.5069426035735836  0.7229711970251123
  0.6396402744144115  0.4111270178716967  0.0713702999056192
  0.3185399714682153  0.8230606223465604  0.9775333729412001
  0.3474033516728076  0.5868874043014629  0.3204991760773160
  0.4289099655467313  0.2257897053636049  0.7461821042897703
  0.8649381545291649  0.9251934200374311  0.1712928298869272
  0.8052061660429278  0.6790886529771579  0.4478609310071245
 
  0.00000000E+00  0.00000000E+00  0.00000000E+00
  0.00000000E+00  0.00000000E+00  0.00000000E+00
  0.00000000E+00  0.00000000E+00  0.00000000E+00
  0.00000000E+00  0.00000000E+00  0.00000000E+00
  0.00000000E+00  0.00000000E+00  0.00000000E+00
  0.00000000E+00  0.00000000E+00  0.00000000E+00
  0.00000000E+00  0.00000000E+00  0.00000000E+00
  0.00000000E+00  0.00000000E+00  0.00000000E+00
  0.00000000E+00  0.00000000E+00  0.00000000E+00
  0.00000000E+00  0.00000000E+00  0.00000000E+00
  0.00000000E+00  0.00000000E+00  0.00000000E+00
  0.00000000E+00  0.00000000E+00  0.00000000E+00
  0.00000000E+00  0.00000000E+00  0.00000000E+00
  0.00000000E+00  0.00000000E+00  0.00000000E+00
  0.00000000E+00  0.00000000E+00  0.00000000E+00
  0.00000000E+00  0.00000000E+00  0.00000000E+00
  0.00000000E+00  0.00000000E+00  0.00000000E+00
  0.00000000E+00  0.00000000E+00  0.00000000E+00
  0.00000000E+00  0.00000000E+00  0.00000000E+00
  0.00000000E+00  0.00000000E+00  0.00000000E+00
  0.00000000E+00  0.00000000E+00  0.00000000E+00
  0.00000000E+00  0.00000000E+00  0.00000000E+00
  0.00000000E+00  0.00000000E+00  0.00000000E+00
  0.00000000E+00  0.00000000E+00  0.00000000E+00
  0.00000000E+00  0.00000000E+00  0.00000000E+00
  0.00000000E+00  0.00000000E+00  0.00000000E+00
  0.00000000E+00  0.00000000E+00  0.00000000E+00
  0.00000000E+00  0.00000000E+00  0.00000000E+00
  0.00000000E+00  0.00000000E+00  0.00000000E+00
  0.00000000E+00  0.00000000E+00  0.00000000E+00
  0.00000000E+00  0.00000000E+00  0.00000000E+00
  0.00000000E+00  0.00000000E+00  0.00000000E+00
  0.00000000E+00  0.00000000E+00  0.00000000E+00
  0.00000000E+00  0.00000000E+00  0.00000000E+00
  0.00000000E+00  0.00000000E+00  0.00000000E+00
