Na5 Mn5 Cu1 S8                          
   1.00000000000000     
     6.1566866714924373   -0.0058571222794037   -1.1007608530935378
    -1.6874075686383156    5.7754002423167083   -0.4909182593695993
     0.0001989743181690    0.0397166841290296    8.8113285659474609
   Na   Mn   Cu   S 
     5     5     1     8
Direct
  0.3855375588081454  0.8757290264696914  0.2926274212815211
  0.8865972203910962  0.1152013250001919  0.9259507832698826
  0.3935141190024264  0.3546816313923053  0.5514932768002702
  0.8423378730012664  0.6839806339483900  0.1234986576131175
  0.9415714743634406  0.5586593124048612  0.7318163726028692
  0.4383588151032543  0.8726062747789152  0.6536946027395759
  0.3942408169741258  0.3710067070701853  0.9094596828934387
  0.9423351556440347  0.9101928747471468  0.4891715896263216
  0.3363087401928639  0.3583353287215147  0.2008899998839892
  0.8350875749517176  0.3220058821225556  0.3623175935198552
  0.3826438908834038  0.8605544732681341  0.9465653750281388
  0.6030462423194222  0.6830186539412048  0.8292154130123357
  0.2087593186119314  0.0425655093430271  0.7517049094741827
  0.1405116931792466  0.6334552775941940  0.4835927248088290
  0.1759444146626248  0.5438755035243891  0.0205574008594705
  0.0671060080455266  0.1060279627364885  0.2926176684116449
  0.7097971773708937  0.1256961620511007  0.5603336574107958
  0.5649159829572739  0.1916762576268923  0.0965961386521148
  0.6377555914845980  0.5983039987094996  0.3647732399601480
 
  0.00000000E+00  0.00000000E+00  0.00000000E+00
  0.00000000E+00  0.00000000E+00  0.00000000E+00
  0.00000000E+00  0.00000000E+00  0.00000000E+00
  0.00000000E+00  0.00000000E+00  0.00000000E+00
  0.00000000E+00  0.00000000E+00  0.00000000E+00
  0.00000000E+00  0.00000000E+00  0.00000000E+00
  0.00000000E+00  0.00000000E+00  0.00000000E+00
  0.00000000E+00  0.00000000E+00  0.00000000E+00
  0.00000000E+00  0.00000000E+00  0.00000000E+00
  0.00000000E+00  0.00000000E+00  0.00000000E+00
  0.00000000E+00  0.00000000E+00  0.00000000E+00
  0.00000000E+00  0.00000000E+00  0.00000000E+00
  0.00000000E+00  0.00000000E+00  0.00000000E+00
  0.00000000E+00  0.00000000E+00  0.00000000E+00
  0.00000000E+00  0.00000000E+00  0.00000000E+00
  0.00000000E+00  0.00000000E+00  0.00000000E+00
  0.00000000E+00  0.00000000E+00  0.00000000E+00
  0.00000000E+00  0.00000000E+00  0.00000000E+00
  0.00000000E+00  0.00000000E+00  0.00000000E+00
