Na2 Cu2 Te3
1.0
   4.2719855308532706    0.0000000000000000    0.0174430962651972
   0.0115227407718090    5.7967352783732577    3.1157298088073730
   0.0000000000000000    0.0000000000000000    7.7909793853759766
Na Cu Te
2 2 3
direct
   0.1259296089410782    0.7196417450904846    0.4252880513668060 Na
   0.6268107891082764    0.3583638072013855    0.1832382529973984 Na
   0.1248810738325119    0.2075355947017670    0.8569871187210083 Cu
   0.6266850829124451    0.9345230460166931    0.7303647398948669 Cu
   0.6255583167076111    0.5262319445610046    0.7576621770858765 Te
   0.6265605092048645    0.9110087752342224    0.0752812847495079 Te
   0.1267690658569336    0.1626276671886444    0.5142778158187866 Te
