K3 Tl1 O3
1.0
   3.5417981147766113    0.0000000000000000   -0.0152954189106822
  -0.0268073447173662    6.0692476478544197    2.3174989223480220
   0.0000000000000000    0.0000000000000000    6.5066003799438477
K Tl O
3 1 3
direct
   0.7978191375732422    0.3386462330818177    0.0442327857017517 K
   0.3007941544055939    0.8658847808837892    0.0639569610357285 K
   0.7983534932136536    0.8462355136871339    0.5337499976158142 K
   0.3002456724643707    0.3216907680034637    0.5197104215621948 Tl
   0.7992240786552429    0.5510792136192322    0.3384347558021545 O
   0.2995169162750244    0.1225629001855850    0.3193519711494446 O
   0.7967663407325745    0.1418579816818237    0.7465392947196960 O
