Na7 Zr1 In1 Sn1 P4 O18
1.0
   5.6243257522583008    0.0000000000000000    0.0402193665504461
   2.5486104410923351    8.3973705096316387    0.2543168365955362
   0.0000000000000000    0.0000000000000000    9.5965499877929688
Na Zr In Sn P O
7 1 1 1 4 18
direct
   0.9598656892776490    0.7755206227302551    0.8229172825813293 Na
   0.0685775279998779    0.5879006981849670    0.1330966800451279 Na
   0.6291617751121522    0.3820509314537048    0.2431622892618179 Na
   0.6310744881629944    0.3362910449504852    0.9344165325164795 Na
   0.4397497773170472    0.7896354794502258    0.2690665125846863 Na
   0.1524712890386581    0.2132554948329926    0.4678974151611328 Na
   0.8093802928924563    0.9801152348518370    0.1476428061723709 Na
   0.5762834548950195    0.6288337707519531    0.5846643447875977 Zr
   0.1961000263690949    0.0813439190387726    0.9099637269973755 In
   0.6774980425834656    0.1474487334489822    0.6389330029487610 Sn
   0.2443979233503342    0.1928841024637222    0.1756835281848907 P
   0.1514668315649033    0.4092234373092651    0.7351104617118835 P
   0.9840567111968995    0.8560310006141663    0.4681205153465271 P
   0.5079607963562012    0.7162126302719115    0.9734740853309631 P
   0.2107417434453964    0.3485679328441620    0.2520717382431030 O
   0.7993887066841127    0.7942683100700377    0.5677523016929626 O
   0.7055462598800659    0.7794153094291687    0.0369360260665417 O
   0.8598321676254274    0.0722677111625671    0.8183037638664246 O
   0.9853970408439637    0.1931562125682831    0.1019827276468277 O
   0.6076729893684387    0.5635764598846436    0.3994387984275818 O
   0.5520284175872803    0.6972086429595947    0.8114586472511292 O
   0.0896964743733406    0.4735569953918457    0.8783132433891296 O
   0.3561972677707672    0.4712849557399750    0.6571912765502930 O
   0.2425464540719986    0.8105911612510681    0.5438227057456970 O
   0.4299341142177582    0.1709583699703217    0.0471396520733833 O
   0.3508721292018890    0.0534506104886532    0.2789940536022186 O
   0.4957526922225954    0.5660516023635863    0.0544661879539490 O
   0.2437935024499893    0.8473809957504272    0.9882242679595947 O
   0.0075593795627356    0.7889536619186401    0.3203235268592834 O
   0.2720555663108826    0.2194255888462067    0.7344791293144226 O
   0.9107610583305360    0.4378330111503601    0.6432053446769714 O
   0.8859422206878663    0.0450598262250423    0.4625313282012939 O
