Na5 Nb1 Ga1 Si2 C2 S1 O17
1.0
   5.6381835937499991    0.0000000000000000   -1.4252359867095965
  -1.8547677232845687    6.7442635237201811   -3.0958981513977060
   0.0000000000000000    0.0000000000000000   10.6305685043334961
Na Nb Ga Si C S O
5 1 1 2 2 1 17
direct
   0.9212356209754943    0.3105011284351349    0.3466425836086273 Na
   0.4238767325878143    0.1463638842105866    0.7584975361824036 Na
   0.9049389958381652    0.9833468198776245    0.8839614987373352 Na
   0.2839491069316864    0.9160630702972413    0.1607496142387390 Na
   0.0710084587335587    0.4495561420917512    0.0286259520798922 Na
   0.7203575968742371    0.7493082284927369    0.3654384613037109 Nb
   0.3191867470741272    0.6173716187477113    0.7747486829757690 Ga
   0.9043716192245482    0.2363064736127853    0.6573622822761536 Si
   0.7655313611030579    0.5880969762802125    0.6318752765655518 Si
   0.2457282990217209    0.7783241868019104    0.4139968752861023 C
   0.6941026449203491    0.7748298048973085    0.0664084255695343 C
   0.5350487828254700    0.2651833593845367    0.1010189950466156 S
   0.4543909132480621    0.7208348512649536    0.9827851653099060 O
   0.5432711839675903    0.4823190271854401    0.1614484190940857 O
   0.8777843713760375    0.7496201395988465    0.0175529327243567 O
   0.7343961596488953    0.8583099246025085    0.2121918350458145 O
   0.4978464543819427    0.2041483968496323    0.2102206349372864 O
   0.8325192332267760    0.2146056294441223    0.7845912575721741 O
   0.7031215429306030    0.6124581098556520    0.4816279709339142 O
   0.0495132729411126    0.7149742245674134    0.7314874529838562 O
   0.0220024399459362    0.6576858758926392    0.3334229588508606 O
   0.7372145652770996    0.3518296182155609    0.5825099349021912 O
   0.3237247765064240    0.1655854880809784    0.9682370424270630 O
   0.3743973374366760    0.7721490263938904    0.3220905661582947 O
   0.5759975910186768    0.6772905588150026    0.7144684791564941 O
   0.8516997694969176    0.0127130690962076    0.5129882693290710 O
   0.1937796622514725    0.3463290631771088    0.7002575397491455 O
   0.3196802735328674    0.8798728585243226    0.5466933846473694 O
   0.7735751867294312    0.2337180376052857    0.0711889937520027 O
