Ba2 Na3 Tl1 O5
1.0
   4.8941106796264648    0.0000000000000000   -1.3883947134017944
  -0.8177966374285510    4.2054654304594834   -2.8074905872344975
   0.0000000000000000    0.0000000000000000    9.4389457702636719
Ba Na Tl O
2 3 1 5
direct
   0.5117286443710327    0.1425219923257827    0.6111350655555725 Ba
   0.0219270717352629    0.6638849377632141    0.6325631737709045 Ba
   0.1874932795763016    0.4940751492977142    0.9632200002670288 Na
   0.8530561327934265    0.8228945136070250    0.2926835715770721 Na
   0.6907867789268494    0.0010767197236419    0.9678205847740173 Na
   0.3385848402976990    0.2975783944129944    0.2636784613132477 Tl
   0.1925246864557266    0.0075061586685479    0.9758473038673401 O
   0.3402120471000671    0.7911344766616821    0.2681151628494263 O
   0.0263628102838993    0.1690101027488708    0.6391425132751465 O
   0.5020300745964050    0.6239413619041442    0.5905897617340088 O
   0.8388303518295288    0.3081843852996826    0.2770491242408752 O
