Na1 Fe3 Cu1 H10 C1 S2 O20
1.0
   6.3108892440795898    0.0000000000000000   -0.0013898046454421
  -2.4778479478396767    7.6068816800816466   -1.3074464797973626
   0.0000000000000000    0.0000000000000000    9.3531188964843750
Na Fe Cu H C S O
1 3 1 10 1 2 20
direct
   0.3626289367675781    0.3150602579116822    0.8037913441658020 Na
   0.6307954788208008    0.8589935302734376    0.0224930029362440 Fe
   0.2221784591674805    0.9968399405479431    0.2159479558467865 Fe
   0.2783087193965912    0.9230079650878907    0.5352051258087158 Fe
   0.1102331355214119    0.3747606575489045    0.1855285465717316 Cu
   0.6958488821983337    0.1975041627883911    0.6454874277114868 H
   0.2187619656324387    0.7698572278022766    0.9817172884941101 H
   0.0146434186026454    0.9467632174491882    0.7692580819129944 H
   0.4483891725540161    0.7972058057785034    0.2876581549644470 H
   0.2408860474824905    0.9482186436653137    0.8376926183700562 H
   0.6647979617118835    0.6162117719650269    0.1483964622020721 H
   0.0778735429048538    0.1608806848526001    0.4505379498004913 H
   0.4614861905574799    0.3198626935482026    0.2628396749496460 H
   0.5914754271507263    0.2498258948326111    0.5170314311981201 H
   0.5945580601692201    0.5306143164634706    0.5763786435127258 H
   0.5672101974487305    0.7410250902175903    0.6985180377960205 C
   0.9142289757728577    0.5237461924552917    0.3943299949169159 S
   0.9299114346504211    0.4026805162429810    0.8848110437393188 S
   0.5482420921325684    0.1734662950038910    0.5911454558372498 O
   0.5361530184745789    0.5640686750411987    0.6755454540252686 O
   0.5511631965637207    0.6701438426971437    0.1283661872148514 O
   0.0017906427383424    0.6921635866165162    0.4972306191921234 O
   0.9244063496589661    0.5468749403953553    0.2415047883987427 O
   0.1206622198224068    0.0533366464078426    0.4269662201404572 O
   0.3796712458133698    0.8859116435050964    0.3296451866626740 O
   0.1752603650093079    0.9842123389244081    0.7534152865409851 O
   0.9650228619575500    0.3188630938529968    0.7365920543670654 O
   0.4806948900222778    0.8034832477569581    0.6060361266136169 O
   0.6974273920059204    0.3286039531230927    0.9244971871376038 O
   0.0586761236190796    0.4066449105739594    0.3968600332736969 O
   0.3326723873615265    0.2533196806907654    0.2019872069358826 O
   0.0959645062685013    0.3492542803287507    0.9813036322593689 O
   0.8027701377868652    0.0733925551176071    0.1453717201948166 O
   0.6778963804244995    0.4347818493843079    0.4247021973133087 O
   0.9986555576324465    0.5972989797592164    0.9051947593688965 O
   0.9309381842613220    0.9518009424209596    0.1037990227341652 O
   0.3339065909385681    0.8925071358680725    0.0194066297262907 O
   0.6951260566711426    0.8391872048377991    0.8131633996963501 O
