Na11 Fe3 O10
1.0
   6.0420188903808594    0.0000000000000000   -1.6715049743652350
   0.3901795507414438    6.5834853247578193   -0.1538863182067868
   0.0000000000000000    0.0000000000000000    9.1966295242309570
Na Fe O
11 3 10
direct
   0.4813967645168304    0.0660875290632248    0.3518474102020264 Na
   0.5233266353607178    0.8200614452362061    0.8749572038650513 Na
   0.3254539072513580    0.2823510169982910    0.0137512367218733 Na
   0.9514157176017761    0.9418497085571289    0.4112840592861176 Na
   0.8023623824119568    0.4226507544517517    0.8860720992088318 Na
   0.8575174808502197    0.0106332730501890    0.7449870109558105 Na
   0.7441356182098389    0.4035587012767792    0.5329563617706299 Na
   0.1093667447566986    0.3359060585498810    0.3040822744369507 Na
   0.7824165225028992    0.0735309347510338    0.0912444815039635 Na
   0.1266526430845261    0.6271755099296570    0.7612164616584778 Na
   0.3420582711696625    0.6704629659652711    0.4799614548683167 Na
   0.1366456449031830    0.7806828022003174    0.0913552492856979 Fe
   0.2997520565986633    0.1726959347724915    0.6855070590972900 Fe
   0.6849105954170227    0.5800825953483582    0.2404361814260483 Fe
   0.7243769764900208    0.2940365672111511    0.2808894515037537 O
   0.1650324612855911    0.0632429942488670    0.1477234661579132 O
   0.9927274584770203    0.6656908392906189    0.2377374470233918 O
   0.5552787184715271    0.1684006452560425    0.8537042737007141 O
   0.3854434192180634    0.3133480846881866    0.5383815169334412 O
   0.2233810424804688    0.9003025293350220    0.6486982703208923 O
   0.0471607558429241    0.2911008894443512    0.7343130111694336 O
   0.6575729250907898    0.7343441247940063    0.4112574458122253 O
   0.9050523638725281    0.7493804097175598    0.9071061611175537 O
   0.4179074764251709    0.6405490040779114    0.0659704133868217 O
