Na2 In2 Cl8                             
   1.00000000000000     
     4.0303191635056370   -0.0051042376752513   -0.6187069501749644
    -0.2514763531345892    6.5541696628238615   -1.6435280644594747
    -0.0098222130422081    0.1457866775617631   13.3567219293963060
   Na   In   Cl
     2     2     8
Direct
  0.8273932138906881  0.2946606691599933  0.7355482741250882
  0.5723509766508740  0.6614813565377780  0.2278206114932945
  0.1924917765853331  0.3113654811246409  0.4679542693531865
  0.4446063628161362  0.9037543691668724  0.9691450135133504
  0.5007993450962275  0.2591015543347656  0.0860044429310295
  0.3889152546887348  0.5423841629960696  0.8609232389770953
  0.6352326339756961  0.0963118278699161  0.3546316743460325
  0.8854475847325799  0.9895062074181973  0.8529483528896445
  0.0042343483417569  0.7969937396480721  0.0888335436023606
  0.7498741238296316  0.5332613275779323  0.5802920921777878
  0.2583050819615807  0.0839965577924621  0.5937526786638390
  0.1362142811719549  0.5655320022927570  0.3541893549615548
 
  0.00000000E+00  0.00000000E+00  0.00000000E+00
  0.00000000E+00  0.00000000E+00  0.00000000E+00
  0.00000000E+00  0.00000000E+00  0.00000000E+00
  0.00000000E+00  0.00000000E+00  0.00000000E+00
  0.00000000E+00  0.00000000E+00  0.00000000E+00
  0.00000000E+00  0.00000000E+00  0.00000000E+00
  0.00000000E+00  0.00000000E+00  0.00000000E+00
  0.00000000E+00  0.00000000E+00  0.00000000E+00
  0.00000000E+00  0.00000000E+00  0.00000000E+00
  0.00000000E+00  0.00000000E+00  0.00000000E+00
  0.00000000E+00  0.00000000E+00  0.00000000E+00
  0.00000000E+00  0.00000000E+00  0.00000000E+00
