Ba1 Sr1 Hf1 W1 O6                       
   1.00000000000000     
     5.0240111839131512   -0.0155483931846412    2.9216716245952035
     1.6786227882091658    4.7336492886085404    2.9227979781026310
    -0.0147510503673966   -0.0143969696733088    5.8112797372011631
   Ba   Sr   Hf   W    O 
     1     1     1     1     6
Direct
  0.9519903407395736  0.2671130253066869  0.7207530777567147
  0.4514298616649965  0.7665098679162466  0.2206163308450070
  0.2015812987063171  0.5166950870180174  0.9707906590729005
  0.7016187542464761  0.0167106146236038  0.4708582319564650
  0.4560735951996808  0.2623260005375250  0.2253409261096067
  0.9470780256846991  0.7711756076408387  0.2253521972022703
  0.9471462774263474  0.2622436348792086  0.2250867855437037
  0.4561703126809944  0.2622217736139924  0.7163149362908381
  0.9471497679873968  0.7715045240729771  0.7162002952963206
  0.4561623860048191  0.7712222125146924  0.7161120052443954
 
  0.00000000E+00  0.00000000E+00  0.00000000E+00
  0.00000000E+00  0.00000000E+00  0.00000000E+00
  0.00000000E+00  0.00000000E+00  0.00000000E+00
  0.00000000E+00  0.00000000E+00  0.00000000E+00
  0.00000000E+00  0.00000000E+00  0.00000000E+00
  0.00000000E+00  0.00000000E+00  0.00000000E+00
  0.00000000E+00  0.00000000E+00  0.00000000E+00
  0.00000000E+00  0.00000000E+00  0.00000000E+00
  0.00000000E+00  0.00000000E+00  0.00000000E+00
  0.00000000E+00  0.00000000E+00  0.00000000E+00
