Generated by VASPKIT code
 1.000000
    5.5560993626600297    0.0787565077910026    1.7263590772835800
    2.0927919860911537    5.4807097709737027    1.1256468500575325
    0.1671222169866854    0.1543814696893638   12.2574279388433904
   Tl   Si   O 
     2     2    10
Direct
    0.6262122325149807    0.1652211819808280    0.7645468596912680    Tl001
    0.8999005397877573    0.6806253548093307    0.9246935899139026    Tl002
    0.3447525928644722    0.8503097031505555    0.6889543143048085    Si001
    0.3598479076667728    0.6340941426166302    0.3188324207864264    Si002
    0.3333689683696374    0.6043365136594895    0.1914833007937272     O001
    0.7578131025882950    0.0034275726620621    0.0374264082448942     O002
    0.1199245057255841    0.5736496033589139    0.4198913013481033     O003
    0.6223271804516167    0.9035221392513070    0.6202855923163003     O004
    0.1020758472415986    0.1133318127608531    0.6647287992072554     O005
    0.6484328297690428    0.4369616762786343    0.3393873428643394     O006
    0.3302444902673617    0.7751999162948663    0.8276456189389244     O007
    0.3419869555278268    0.6336070272589877    0.6242903700750019     O008
    0.3467005450144562    0.9132407690581539    0.3268095933988729     O009
    0.0749624025432944    0.3637047877524009    0.0592497718003920     O010
