Na6 Al2 Si3 O12
1.0
   4.9068922996520996    0.0000000000000000   -2.1888105869293208
   0.9481478400369971    8.0747282319121290   -1.2400053739547725
   0.0000000000000000    0.0000000000000000    7.9716134071350098
Na Al Si O
6 2 3 12
direct
   0.0407422967255116    0.5268315672874451    0.8823841810226439 Na
   0.6962292194366455    0.8076082468032837    0.9528075456619262 Na
   0.5303516983985901    0.0520462654531002    0.5831855535507202 Na
   0.6300211548805237    0.5596223473548889    0.4166620075702667 Na
   0.1366833448410034    0.0164227150380611    0.8516014814376830 Na
   0.9327577352523804    0.1868952512741089    0.3947561085224151 Na
   0.2697036266326904    0.2634799778461456    0.2171642929315567 Al
   0.0020858221687376    0.7952879667282104    0.4385786652565002 Al
   0.3578209280967712    0.4927760958671570    0.6329976916313171 Si
   0.6146808266639709    0.2709096968173981    0.9743803739547728 Si
   0.3491601645946503    0.8476580977439880    0.2020210474729538 Si
   0.5827966928482056    0.0797474235296249    0.8930467367172240 O
   0.9356886148452759    0.3174789547920227    0.0432172119617462 O
   0.6746690869331360    0.7761666774749756    0.2511549293994904 O
   0.5285813808441162    0.3178452551364899    0.1580963283777237 O
   0.3850298821926117    0.3864245414733887    0.8056553006172179 O
   0.9611977934837341    0.9867498874664307    0.5590557456016541 O
   0.6142250895500183    0.5944805145263672    0.7010940313339232 O
   0.3352323174476624    0.3503678143024445    0.4519487917423248 O
   0.2611721754074097    0.7758011221885681    0.3497823178768157 O
   0.3056999742984772    0.0533923469483852    0.2483018040657043 O
   0.0713455379009247    0.6157690286636353    0.5661401152610779 O
   0.1681320965290070    0.7900291681289673    0.9918927550315856 O
