Generated by VASPKIT code
 1.000000
    5.6447110176086426    0.0000000000000000   -0.6472557783126842
    0.9340197683193159    6.1556800567325682   -0.7647595405578609
    0.0000000000000000    0.0000000000000000    7.4178576469421387
   Si   Bi   O 
     3     2    10
Direct
    0.2423136979341507    0.8997672200202942    0.7847972512245178    Si001
    0.6118791103363037    0.5094535946846008    0.7557365298271179    Si002
    0.2115639299154282    0.9093682169914246    0.3388461768627167    Si003
    0.7028130292892456    0.9794129729270935    0.6091357469558716    Bi001
    0.1046292483806610    0.3461677730083466    0.0642176941037178    Bi002
    0.0505918189883232    0.1434326916933060    0.2734328508377075     O001
    0.0982646495103836    0.6833100914955140    0.2580230236053467     O002
    0.4893302321434021    0.9069723486900330    0.3218474686145782     O003
    0.5349500179290771    0.3149025440216064    0.6081562042236328     O004
    0.3315999805927277    0.6354840397834778    0.7889861464500427     O005
    0.4689241349697113    0.0170327108353376    0.8615279793739319     O006
    0.7511435151100159    0.4719957113265991    0.9578053355216980     O007
    0.1748571991920471    0.9391978979110718    0.5633531212806702     O008
    0.7715918421745300    0.6341335773468018    0.6437526345252991     O009
    0.0020384653471410    0.0033718652557582    0.8837348222732544     O010
