Na1 Mg1 V5 Cr1 Cu1 O18                  
   1.00000000000000     
     7.1857233176547162    0.0280386971115912   -0.0138057531512520
    -0.4238122744449526    7.2779012599587878   -2.0857313596453451
     0.0210063186317492   -0.0017384972442708    7.8774525419820174
   Na   Mg   V    Cr   Cu   O 
     1     1     5     1     1    18
Direct
  0.0888866283034570  0.5523454462347990  0.7621530198238268
  0.3715670762732424  0.2796439438244018  0.9278508784429038
  0.8832795555158280  0.2113712883186322  0.9571852926178043
  0.5649663233348755  0.5121080382055367  0.6129118258828952
  0.8537931250853324  0.1969810060384924  0.3924225143284839
  0.3545671222956436  0.9042608819003612  0.1296271678615629
  0.6255983939247338  0.5811478504708149  0.1421985557871048
  0.3096857974649121  0.8738578909958100  0.5547212149810221
  0.8165471106565702  0.8204646632292800  0.5702590320539433
  0.0304544363108132  0.3222331218505821  0.5009925791825460
  0.4175219521313182  0.4892833119535606  0.1611554880667261
  0.8308953179954924  0.9882214673776393  0.4389088808829641
  0.8162320750583056  0.0157039162221933  0.7935685336729079
  0.7690884394506435  0.6271895409139859  0.3294678983986465
  0.6382345114466128  0.3100835701757619  0.4614842271933081
  0.3828395670422752  0.1036684277890501  0.0785601659366342
  0.4228307903483197  0.4564653310657419  0.7596774471460778
  0.8893358434245942  0.1570659295145605  0.1604414246040086
  0.3064412125811980  0.9369083889370633  0.3650712857981941
  0.5721209019394511  0.7899246870115194  0.0927960462804900
  0.7708905055210008  0.6304460348101342  0.7009759935991051
  0.4621455326175637  0.7012623968831695  0.5406368492210563
  0.3751185985204138  0.0570952495263020  0.7117049489582030
  0.1791044313131743  0.7795129649478020  0.0144138411759766
  0.1076679769897150  0.7847470199733535  0.5901597675918875
  0.7072658549534866  0.3770257807966604  0.9730071055922824
  0.0897635242275793  0.3032616688672898  0.9179901526957537
 
  0.00000000E+00  0.00000000E+00  0.00000000E+00
  0.00000000E+00  0.00000000E+00  0.00000000E+00
  0.00000000E+00  0.00000000E+00  0.00000000E+00
  0.00000000E+00  0.00000000E+00  0.00000000E+00
  0.00000000E+00  0.00000000E+00  0.00000000E+00
  0.00000000E+00  0.00000000E+00  0.00000000E+00
  0.00000000E+00  0.00000000E+00  0.00000000E+00
  0.00000000E+00  0.00000000E+00  0.00000000E+00
  0.00000000E+00  0.00000000E+00  0.00000000E+00
  0.00000000E+00  0.00000000E+00  0.00000000E+00
  0.00000000E+00  0.00000000E+00  0.00000000E+00
  0.00000000E+00  0.00000000E+00  0.00000000E+00
  0.00000000E+00  0.00000000E+00  0.00000000E+00
  0.00000000E+00  0.00000000E+00  0.00000000E+00
  0.00000000E+00  0.00000000E+00  0.00000000E+00
  0.00000000E+00  0.00000000E+00  0.00000000E+00
  0.00000000E+00  0.00000000E+00  0.00000000E+00
  0.00000000E+00  0.00000000E+00  0.00000000E+00
  0.00000000E+00  0.00000000E+00  0.00000000E+00
  0.00000000E+00  0.00000000E+00  0.00000000E+00
  0.00000000E+00  0.00000000E+00  0.00000000E+00
  0.00000000E+00  0.00000000E+00  0.00000000E+00
  0.00000000E+00  0.00000000E+00  0.00000000E+00
  0.00000000E+00  0.00000000E+00  0.00000000E+00
  0.00000000E+00  0.00000000E+00  0.00000000E+00
  0.00000000E+00  0.00000000E+00  0.00000000E+00
  0.00000000E+00  0.00000000E+00  0.00000000E+00
