Na3 Ga5 Se9
1.0
   6.9183721542358398    0.0000000000000000   -3.0721976757049565
  -4.2869253564773535    8.8123730933170030   -1.5052723884582528
   0.0000000000000000    0.0000000000000000    7.5646824836730957
Na Ga Se
3 5 9
direct
   0.7573997974395753    0.6558611989021301    0.1046705394983292 Na
   0.4860363602638245    0.1441973149776458    0.9357704520225525 Na
   0.3730457723140716    0.7594980001449584    0.3474937677383423 Na
   0.9230431914329530    0.8963469266891478    0.7738370299339294 Ga
   0.0870225429534912    0.0176671463996172    0.3556877374649048 Ga
   0.0451064854860306    0.3433075249195099    0.9368219375610352 Ga
   0.5811180472373962    0.4555492401123047    0.5043516159057618 Ga
   0.9858624935150148    0.3110198974609375    0.4097415506839753 Ga
   0.7869164347648622    0.0864961221814155    0.7388237118721008 Se
   0.5862583518028259    0.6810792684555054    0.6963053941726685 Se
   0.0976278781890869    0.8550955653190612    0.5656889677047729 Se
   0.9686704277992250    0.4774473607540130    0.6745985150337219 Se
   0.9489762783050538    0.4449759125709534    0.1704027056694031 Se
   0.4369927644729615    0.4239219725131989    0.1421896815299988 Se
   0.7492689490318299    0.0327698588371277    0.2319414764642716 Se
   0.3336377143859864    0.2826362848281860    0.5891774892807007 Se
   0.1894146353006362    0.9320853352546691    0.1123172789812088 Se
