Na3 Ni4 P5 O18                          
   1.00000000000000     
     6.3421255032037589   -0.1795854093196052   -0.6491550013241246
    -1.1618117953535241    7.6901368931606022    2.0169436518736878
    -0.0993739307010053    0.0694258395575140    8.2589679394351201
   Na   Ni   P    O 
     3     4     5    18
Direct
  0.2326659061866618  0.6735729421203752  0.7372632365984678
  0.5084933340282015  0.1698437797921820  0.2196807488928049
  0.0392110376728923  0.8609300688445345  0.1148782942945919
  0.7403859521607317  0.5152410216709163  0.7103258970610381
  0.0773387626831015  0.2271943352832658  0.3402141032719854
  0.3658835136626208  0.6392660519362018  0.1479303927714050
  0.9238161094373176  0.2076035453696135  0.7270492784794718
  0.8635549201406854  0.9090166009161192  0.5023221573303535
  0.4928799881956828  0.6837867890874492  0.4228447682158332
  0.0233205276252413  0.4134954261639834  0.0462749528571900
  0.5602393572067008  0.9172410956354751  0.9249400233739297
  0.4001737349709029  0.1810967088960451  0.6570572403829356
  0.8521789200063631  0.3171581443098352  0.1742289758727069
  0.4346834149497695  0.9796815083197131  0.7351952350660406
  0.8899827803376279  0.7620722250773995  0.6620064832261464
  0.2336617707940691  0.2249153260448912  0.7490903108320406
  0.2622050416068985  0.6798168276845986  0.3442555681531461
  0.4492696764712959  0.9757885607523098  0.0476797914871712
  0.2174478223354072  0.3208846575415920  0.1306070237293395
  0.7988794208082307  0.9874531563449687  0.9090643089148669
  0.9047905724910336  0.1005342395877002  0.5332841480838072
  0.4849511868501839  0.5766351936361122  0.6058098279950708
  0.6323182387363606  0.2805921137570605  0.6980678635548105
  0.0909696024434020  0.6139991368990764  0.0306713652869452
  0.6162263365900289  0.6287339013479512  0.3010882054296747
  0.3484269753578615  0.1983667385831681  0.4679846984055037
  0.5133047461119254  0.7135868972519361  0.9477961684533988
  0.6070443942130994  0.8808754689124069  0.4369245696212035
  0.9621838067349002  0.4009858082118636  0.8593586606309664
  0.9952594440041964  0.9197864869249045  0.3596380383235550
 
  0.00000000E+00  0.00000000E+00  0.00000000E+00
  0.00000000E+00  0.00000000E+00  0.00000000E+00
  0.00000000E+00  0.00000000E+00  0.00000000E+00
  0.00000000E+00  0.00000000E+00  0.00000000E+00
  0.00000000E+00  0.00000000E+00  0.00000000E+00
  0.00000000E+00  0.00000000E+00  0.00000000E+00
  0.00000000E+00  0.00000000E+00  0.00000000E+00
  0.00000000E+00  0.00000000E+00  0.00000000E+00
  0.00000000E+00  0.00000000E+00  0.00000000E+00
  0.00000000E+00  0.00000000E+00  0.00000000E+00
  0.00000000E+00  0.00000000E+00  0.00000000E+00
  0.00000000E+00  0.00000000E+00  0.00000000E+00
  0.00000000E+00  0.00000000E+00  0.00000000E+00
  0.00000000E+00  0.00000000E+00  0.00000000E+00
  0.00000000E+00  0.00000000E+00  0.00000000E+00
  0.00000000E+00  0.00000000E+00  0.00000000E+00
  0.00000000E+00  0.00000000E+00  0.00000000E+00
  0.00000000E+00  0.00000000E+00  0.00000000E+00
  0.00000000E+00  0.00000000E+00  0.00000000E+00
  0.00000000E+00  0.00000000E+00  0.00000000E+00
  0.00000000E+00  0.00000000E+00  0.00000000E+00
  0.00000000E+00  0.00000000E+00  0.00000000E+00
  0.00000000E+00  0.00000000E+00  0.00000000E+00
  0.00000000E+00  0.00000000E+00  0.00000000E+00
  0.00000000E+00  0.00000000E+00  0.00000000E+00
  0.00000000E+00  0.00000000E+00  0.00000000E+00
  0.00000000E+00  0.00000000E+00  0.00000000E+00
  0.00000000E+00  0.00000000E+00  0.00000000E+00
  0.00000000E+00  0.00000000E+00  0.00000000E+00
  0.00000000E+00  0.00000000E+00  0.00000000E+00
