Na3 Fe3 B1 P3 O15
1.0
   6.2210679054260254    0.0000000000000000    0.7196303009986876
   0.7149334581937958    6.6119069874585676   -0.0008691941038698
   0.0000000000000000    0.0000000000000000    7.5789022445678711
Na Fe B P O
3 3 1 3 15
direct
   0.0516203567385673    0.5616450309753419    0.0305424146354198 Na
   0.9451736211776732    0.0029028137214482    0.4035361707210541 Na
   0.4315313696861267    0.8096613883972169    0.1401958167552948 Na
   0.6144564747810363    0.3543218076229095    0.1438072323799133 Fe
   0.2539951801300049    0.5555857419967651    0.4763838052749634 Fe
   0.5818134546279907    0.0442550554871559    0.8121632933616638 Fe
   0.7716130614280701    0.5753895044326783    0.4252801835536957 B
   0.0371499955654144    0.0548407174646854    0.9771818518638611 P
   0.4110587239265441    0.0706184580922127    0.4435710310935974 P
   0.5095537304878235    0.5559276342391969    0.7655593156814575 P
   0.2667700350284576    0.5754725933074952    0.7510680556297302 O
   0.3027317225933075    0.8704349398612976    0.4424055814743042 O
   0.7343987822532654    0.5763585567474366    0.2523187994956970 O
   0.0564775951206684    0.8834028840065004    0.1065789833664894 O
   0.5957543849945068    0.5297365188598634    0.5549476742744446 O
   0.9480265378952025    0.6300838589668274    0.4833209216594697 O
   0.2721251547336578    0.0960838720202446    0.8952890634536743 O
   0.3400601148605347    0.4994044899940491    0.2253539562225342 O
   0.5885717868804932    0.3678900301456452    0.8713382482528687 O
   0.8948806524276732    0.0193986240774393    0.8301942944526672 O
   0.5866681933403014    0.7390867471694947    0.8471246361732483 O
   0.9282487034797667    0.2485844045877457    0.0838371887803078 O
   0.5367036461830139    0.0999991819262505    0.2508085370063782 O
   0.5935061573982239    0.0551489964127541    0.5650643706321716 O
   0.2389438897371292    0.2493751496076584    0.4962565004825592 O
