Generated by VASPKIT code
 1.000000
    6.9550879460226769    0.0000087142687436    4.0183995733194289
    2.3128534517866521    6.5544896339678020    4.0183544413683565
   -0.0049536632456093   -0.0026276952893263    8.0326744434453126
   Ag   Cl
     1     8
Direct
    0.4251439041952828    0.7250076967867584    0.6584759479373734    Ag001
    0.1758687383642298    0.4759324018207173    0.9071815288497426    Cl001
    0.6739312381702569    0.4755729686180705    0.4084829439340562    Cl002
    0.6744278257283922    0.4759182568550650    0.9078065233835961    Cl003
    0.6747536436072005    0.9754542998229554    0.9085411008345176    Cl004
    0.1745080693347237    0.4753997181932402    0.4080577579365258    Cl005
    0.6741060459866277    0.9738713214822476    0.4092849894704002    Cl006
    0.1751342363140051    0.9746546976071602    0.4089452926167227    Cl007
    0.1752082828467692    0.9749338120847993    0.9075029184509448    Cl008
