Na6 Sn2 O5
1.0
   5.7703132629394522    0.0000000000000000    0.1369806826114660
   1.2009509103486671    5.4756701435252770   -1.5015354156494134
   0.0000000000000000    0.0000000000000000    7.1884608268737793
Na Sn O
6 2 5
direct
   0.7231336236000061    0.4570239186286926    0.9781760573387146 Na
   0.2112841755151749    0.4454741477966309    0.2306052148342133 Na
   0.4750966131687164    0.0145420739427209    0.8580960631370544 Na
   0.4752653241157532    0.0179090611636639    0.3665862083435059 Na
   0.7345736622810364    0.4610694944858551    0.4389013051986694 Na
   0.9466823935508728    0.0016310214996338    0.5660893321037292 Na
   0.9380859732627869    0.9591583609580994    0.1126236096024513 Sn
   0.2359777837991714    0.4642381668090820    0.7174967527389526 Sn
   0.6168372035026550    0.1997602134943008    0.1470378339290619 O
   0.1200534850358963    0.2908329665660858    0.4746989309787750 O
   0.5751038193702698    0.2787000238895416    0.6775410175323486 O
   0.2343485504388810    0.7901297211647033    0.7004475593566895 O
   0.8425406813621521    0.7429867386817932    0.2628516256809235 O
