Na2 W1 O4
1.0
   3.2346296310424805    0.0000000000000000    0.0133601306006305
  -0.0148097283812999    5.5421755329842659    1.5994998216629035
   0.0000000000000000    0.0000000000000000    5.5220632553100586
Na W O
2 1 4
direct
   0.4709980785846710    0.4246235489845276    0.8997802734375000 Na
   0.9714469313621521    0.9242409467697144    0.9000840187072754 Na
   0.9706258773803711    0.4242252111434937    0.3996594548225403 W
   0.9714522957801819    0.6246875524520874    0.6200077533721925 O
   0.4733530879020691    0.6278026700019836    0.2001559138298035 O
   0.9691250920295715    0.2233782112598419    0.1793974339962006 O
   0.4716281592845917    0.2215804606676102    0.5997269153594971 O
