Ba1 Na1 Zr1 W1 O6
1.0
   5.0687828063964844    0.0000000000000000    2.9354939460754395
   1.6947512507679214    4.7759486713951098    2.9409584999084473
   0.0000000000000000    0.0000000000000000    5.8544697761535645
Ba Na Zr W O
1 1 1 1 6
direct
   0.0628633797168732    0.8749179840087891    0.4076251387596130 Ba
   0.5628581047058105    0.3745112121105194    0.9075155258178712 Na
   0.3128133714199066    0.1248036399483681    0.6577053070068359 Zr
   0.8126538395881653    0.6247373819351196    0.1575330942869186 W
   0.5703520178794862    0.8670180439949035    0.3999047279357910 O
   0.5704454779624940    0.8672019839286803    0.9153846502304078 O
   0.0547080263495445    0.3830504715442657    0.9148467779159547 O
   0.0547362864017487    0.3828379809856415    0.3996408879756927 O
   0.0544945523142815    0.8674501776695251    0.9153328537940980 O
   0.5702077150344849    0.3826217353343964    0.3998948931694032 O
