Na3 Cu1 O2
1.0
   3.4246838092803955    0.0000000000000000   -0.0000773097272029
  -1.6991095803821288    5.1313999425033670   -1.7914153337478644
   0.0000000000000000    0.0000000000000000    5.4746656417846680
Na Cu O
3 1 2
direct
   0.7394042015075685    0.1599055975675583    0.2354822307825088 Na
   0.9693118929862977    0.6220392584800720    0.0088282367214561 Na
   0.1968185752630234    0.0837109759449959    0.7801174521446228 Na
   0.4685405790805817    0.6223080754280090    0.5088793039321899 Cu
   0.3630363941192628    0.4083768427371979    0.1726038306951523 O
   0.5743026733398438    0.8338184356689453    0.8446970582008362 O
