Na3 Ti2 Cu3 Se7                         
   1.00000000000000     
     6.1947323031265844    0.0014684266370765   -0.8022628913822343
    -1.9566586159844070    6.6379322368173375    1.5077306123618961
     0.0065429396304993   -0.0220800155273717    7.7693702992441001
   Na   Ti   Cu   Se
     3     2     3     7
Direct
  0.4981825976457702  0.6946465799174062  0.3112820299784275
  0.1125330705925795  0.0163031212108582  0.4115440497504568
  0.0347282760553983  0.0067794981251615  0.8811473171837128
  0.5278418327449912  0.4712925433624019  0.8513801759296268
  0.0557351623774447  0.5265213601875972  0.9711874536344468
  0.9416715815650981  0.4262963570422784  0.5108803460956530
  0.6850145329504159  0.3332152082405215  0.2097471883323308
  0.5276207164141674  0.1142901470508384  0.7090715013624220
  0.6830963953619297  0.0912368717323126  0.4644969262981855
  0.4233216580402693  0.7759023533007726  0.8795877418398202
  0.7459804958552786  0.2109430075154185  0.9685589374484205
  0.9670430374250898  0.6572710072769525  0.2097269332678281
  0.3039882035996127  0.3172861023722265  0.1183512819274378
  0.8737462959168038  0.6570251284357266  0.6863608297459998
  0.2882147087105544  0.3395265062375695  0.6168555021128778
 
  0.00000000E+00  0.00000000E+00  0.00000000E+00
  0.00000000E+00  0.00000000E+00  0.00000000E+00
  0.00000000E+00  0.00000000E+00  0.00000000E+00
  0.00000000E+00  0.00000000E+00  0.00000000E+00
  0.00000000E+00  0.00000000E+00  0.00000000E+00
  0.00000000E+00  0.00000000E+00  0.00000000E+00
  0.00000000E+00  0.00000000E+00  0.00000000E+00
  0.00000000E+00  0.00000000E+00  0.00000000E+00
  0.00000000E+00  0.00000000E+00  0.00000000E+00
  0.00000000E+00  0.00000000E+00  0.00000000E+00
  0.00000000E+00  0.00000000E+00  0.00000000E+00
  0.00000000E+00  0.00000000E+00  0.00000000E+00
  0.00000000E+00  0.00000000E+00  0.00000000E+00
  0.00000000E+00  0.00000000E+00  0.00000000E+00
  0.00000000E+00  0.00000000E+00  0.00000000E+00
