Generated by VASPKIT code
 1.000000
    6.2760505957861774    0.0052714284250965    0.0768757685800904
   -1.4368770870202452    9.3824541461192350    0.0799666962259785
   -0.0085545991681349   -0.0080084088962487    7.9134945633997624
   In   O 
     3    12
Direct
    0.1183748238905495    0.0609795938463165    0.1496673873569100    In001
    0.3098478788786688    0.6092744339550461    0.6535437288549146    In002
    0.5441813691813530    0.2758698352116475    0.6482684296161635    In003
    0.2542238495192643    0.3758568982159999    0.6496743767519469     O001
    0.0287221405234156    0.7048707893309707    0.6581636586368186     O002
    0.9321564268740931    0.6536132344550470    0.1411702676113621     O003
    0.3933640812144313    0.9569789595186231    0.1544269260550693     O004
    0.4867021211739484    0.0562442139855398    0.6357152895615814     O005
    0.1697877476304823    0.2875431367696206    0.1587525222470584     O006
    0.9597643129900776    0.0146178020322061    0.9184564039845245     O007
    0.9338612653773494    0.9941171465601721    0.3727504314588147     O008
    0.6907889048352045    0.3193885572398470    0.8828170796767646     O009
    0.7008358705073626    0.3432754412240580    0.4202319688729984     O010
    0.5024670119634085    0.6549795649486423    0.8627350868355214     O011
    0.4778155667410505    0.6755415300922115    0.4323867613882022     O012
