Generated by VASPKIT code
 1.000000
    3.5064680892479241    0.0019940591722393   -0.0014761291224503
   -0.0016591377201400    5.9535060816426242   -0.0579958445110419
    0.0001745911170163   -0.1186922697269421    7.3007161598618344
   Rb   Bi   O 
     1     2     4
Direct
    0.9488891326907114    0.2890617570159872    0.8367155836488110    Rb001
    0.4513309475628640    0.7832322050304262    0.5670284383679075    Bi001
    0.9493430064282561    0.2220361263581571    0.3284552493686367    Bi002
    0.4492520196723765    0.1355410206809627    0.5599453987469512     O001
    0.9485526147186321    0.8637991419456468    0.3122733245217076     O002
    0.9502469076418220    0.7841936619349742    0.7699603319805955     O003
    0.4488541599493995    0.2183265168744158    0.1302615864922866     O004
