Na8 Zn3 O7
1.0
   5.6142344474792480    0.0000000000000000    1.0809266567230227
   1.7280052324770154    5.3508446691430329   -0.8403958082199102
   0.0000000000000000    0.0000000000000000    8.0443639755249023
Na Zn O
8 3 7
direct
   0.7934420108795166    0.8162428736686708    0.3756259977817535 Na
   0.5360933542251587    0.8313471674919128    0.8401783704757690 Na
   0.9797725677490234    0.1282887458801270    0.9140349626541138 Na
   0.8165010213851929    0.2708615362644196    0.2514067590236664 Na
   0.4156636595726013    0.3587165474891663    0.8930160403251648 Na
   0.6850751042366029    0.3203985691070557    0.5878681540489197 Na
   0.3505969643592834    0.7372009158134460    0.2008692622184753 Na
   0.1395097672939301    0.4018639922142029    0.6253888607025146 Na
   0.3163816034793854    0.2507469654083252    0.2714899182319641 Zn
   0.2667825222015381    0.8525997996330261    0.5667542219161987 Zn
   0.9155458211898804    0.6659092307090759    0.9884765744209290 Zn
   0.6350201368331909    0.9892112016677856    0.1218044906854629 O
   0.7719040513038635    0.4562820196151733    0.8442729711532593 O
   0.4722776412963867    0.0481230244040489    0.6402195096015930 O
   0.1703267693519592    0.7356751561164856    0.8058836460113525 O
   0.0948777720332146    0.4567689299583435    0.1379436701536179 O
   0.4360811710357666    0.5147805809974670    0.4072701334953308 O
   0.0880349725484848    0.0776395425200462    0.4066238999366760 O
