Na2 La2 Fe4 O12
1.0
   5.4795575141906738    0.0000000000000000   -0.0001975101913562
  -0.0044096376864873    5.4837423714806413   -0.0028288571629673
   0.0000000000000000    0.0000000000000000    7.7614488601684570
Na La Fe O
2 2 4 12
direct
   0.8594916462898254    0.5976284146308899    0.6106798052787780 Na
   0.3598182499408722    0.0975587666034699    0.1102392524480820 Na
   0.8598277568817139    0.5977815389633179    0.1101735830307007 La
   0.3596715927124023    0.0972126424312592    0.6102623939514159 La
   0.8596557974815369    0.0979483202099800    0.8608264327049254 Fe
   0.3603623807430267    0.5976790189743042    0.3612795770168304 Fe
   0.8595259785652161    0.0982579514384270    0.3606833815574645 Fe
   0.3592173457145691    0.5973703861236572    0.8601936697959899 Fe
   0.1100714728236198    0.8471738100051880    0.8605513572692870 O
   0.6088576316833496    0.3474098742008210    0.8596997857093810 O
   0.3600017726421356    0.5975389480590820    0.1096891462802887 O
   0.6092658638954163    0.8479971289634705    0.8597118854522704 O
   0.6095836162567139    0.8488866686820985    0.3609917759895324 O
   0.1096478924155235    0.8486700057983400    0.3607766926288604 O
   0.8600342869758606    0.0974598601460457    0.6098971366882323 O
   0.1100955158472061    0.3478933572769165    0.8603503108024596 O
   0.1095305383205414    0.3464202582836152    0.3607801496982574 O
   0.6100517511367798    0.3469070196151733    0.3607651293277740 O
   0.3595159053802490    0.5980103611946106    0.6110759973526000 O
   0.8599860072135925    0.0975092351436615    0.1106038689613342 O
