Generated by VASPKIT code
 1.000000
    8.2574824182333195   -0.1824453986601154    0.5934124925789394
    0.0245841658568641    7.2940108865592466   -0.0193399324973469
   -0.0584042651211634   -0.0357577613440236   16.9216049638281696
   Ga   Ge   Se
     7     1    18
Direct
    0.5140460807037853    0.7140850120150461    0.7565672590007795    Ga001
    0.4929080249062917    0.4179380787911249    0.0925870495934318    Ga002
    0.0206001141397902    0.5936120481166762    0.3925232408527092    Ga003
    0.9227027255206696    0.0738590176781679    0.3757756259000766    Ga004
    0.8776595687249110    0.7584665495496237    0.1905344436362602    Ga005
    0.2376940618030905    0.9773656602293388    0.0411162049431823    Ga006
    0.5458085109883701    0.2332406309379450    0.8887864411640981    Ga007
    0.2472720546915606    0.2173927304895142    0.4977559749746595    Ge001
    0.2533241029457646    0.1615371581140667    0.9160031083838879    Se001
    0.6514526164144673    0.0250431995513219    0.7811922614271380    Se002
    0.6658541156503122    0.5280009049206602    0.8447707762335199    Se003
    0.7692086600565718    0.0254711994083971    0.2589828075747809    Se004
    0.6394267691882433    0.5369284086964756    0.2053257201245527    Se005
    0.6101646555812975    0.6053900740498077    0.6278050024071226    Se006
    0.6839268473296591    0.2349283561208121    0.0124165229610337    Se007
    0.8998492516528284    0.8362143068948280    0.4737081311454539    Se008
    0.4117238515801429    0.7023100505195329    0.0229897471362005    Se009
    0.2180323313803531    0.0886271902940791    0.3661626768938168    Se010
    0.2735756753145341    0.5386954439586402    0.4602836698994689    Se011
    0.4822094196328118    0.0711071921998026    0.5293104427644511    Se012
    0.8134015721669160    0.3617557479528268    0.4257241610235963    Se013
    0.0809323633630387    0.1945648006103369    0.6204676162595211    Se014
    0.9673351991223976    0.8223714998010672    0.0514797092350082    Se015
    0.1017272437022387    0.6205975125186909    0.2517570681618607    Se016
    0.2808022218291698    0.1956038532354287    0.1479406384493858    Se017
    0.2181352354381807    0.6729362906190000    0.7705209892314736    Se018
