Generated by VASPKIT code
 1.000000
    6.9000558436186328   -0.0120021782772044    4.0014323383446451
    2.3061274293407705    6.5039636281548825    3.9940931535344975
   -0.0060333144100505   -0.0068981126921547    7.9789473239280122
   Pd   Cl
     1     8
Direct
    0.1896735381665529    0.8136896685697474    0.9773084583457983    Pd001
    0.4175771579662058    0.0416125276455936    0.7492828564158298    Cl001
    0.9620693827552625    0.0415498504004857    0.2046665691975553    Cl002
    0.4174261006655384    0.5861539958394161    0.7495013806714595    Cl003
    0.9619298846405947    0.5863003482133311    0.2048265914947233    Cl004
    0.9399259555362730    0.5637991520332817    0.7271447830676426    Cl005
    0.9608070425742361    0.0426721952206245    0.7484078231509455    Cl006
    0.4396581290806319    0.0636928369120182    0.2273370067837952    Cl007
    0.4183967482986665    0.5850111301282800    0.2056312547451818    Cl008
