Generated by VASPKIT code
 1.000000
    3.0892963409423828    0.0000000000000000   -0.4727813601493837
   -0.9642378842975888    5.2145462561861473    0.0992460250854493
    0.0000000000000000    0.0000000000000000    8.5676765441894531
   Cd   Si   C    O 
     1     1     1     6
Direct
    0.4236322045326233    0.8078640699386596    0.4360146820545197    Cd001
    0.8285027146339417    0.3629326820373535    0.6621431708335876    Si001
    0.9601388573646545    0.8879215717315674    0.1432865113019943     C001
    0.7136886119842529    0.0610213950276375    0.6414212584495544     O001
    0.9480102658271790    0.0118846250697970    0.2735877037048340     O002
    0.8892781138420105    0.0168874207884073    0.0117677915841341     O003
    0.8446807861328125    0.5342282056808472    0.5062881708145142     O004
    0.3931045830249786    0.4397265017032623    0.7526640892028809     O005
    0.0853332653641701    0.6633661389350891    0.1527510136365891     O006
