Na2 Gd1 O2
1.0
   3.4401977062225342    0.0000000000000000   -0.0218872614204882
   1.7082418764650951    2.9839578413852670   -0.0260497853159906
   0.0000000000000000    0.0000000000000000    8.4888048171997070
Na Gd O
2 1 2
direct
   0.6224138736724854    0.7599389553070068    0.7154474854469299 Na
   0.9537110924720765    0.0911854654550552    0.1062100008130074 Na
   0.2871492803096771    0.4249958693981171    0.4124066829681396 Gd
   0.6209378242492676    0.7563148140907288    0.2632701396942139 O
   0.9545465707778932    0.0914972499012947    0.5610577464103699 O
