Na2 Zn1 O2                              
   1.00000000000000     
     2.9621795629908032   -0.0038880512643766   -0.8297223460224681
    -0.5068198252244275    4.0897174109366725   -1.8261231057387866
    -0.0081064983809760    0.1117162463308852    5.8569475751482347
   Na   Zn   O 
     2     1     2
Direct
  0.5667716887613640  0.0522229050627575  0.1109560370229001
  0.9580918944084701  0.4439256088639548  0.8964181541994922
  0.2627070507515273  0.7480507688846345  0.5038536259831926
  0.8927153948691393  0.8804049583490146  0.7706712928594464
  0.6326917918443408  0.6161307085476234  0.2370840677756785
 
  0.00000000E+00  0.00000000E+00  0.00000000E+00
  0.00000000E+00  0.00000000E+00  0.00000000E+00
  0.00000000E+00  0.00000000E+00  0.00000000E+00
  0.00000000E+00  0.00000000E+00  0.00000000E+00
  0.00000000E+00  0.00000000E+00  0.00000000E+00
