Na10 Zn1 Sn2 O10
1.0
   6.2738838195800772    0.0000000000000000   -0.6553713679313660
   0.0048651485115160    6.3961968992500244    1.2705845832824709
   0.0000000000000000    0.0000000000000000    8.7996568679809570
Na Zn Sn O
10 1 2 10
direct
   0.4205021858215333    0.6064851880073547    0.2654645144939423 Na
   0.1086601018905640    0.1736330389976501    0.7107471823692322 Na
   0.1553966552019119    0.7443252801895142    0.8813654184341430 Na
   0.3722226917743683    0.1512397825717926    0.4409799575805664 Na
   0.6171081662178040    0.4218797087669373    0.6365282535552979 Na
   0.7318267226219177    0.8145384788513184    0.0811999589204788 Na
   0.8981880545616151    0.3373185694217682    0.9481539726257324 Na
   0.9364791512489320    0.4173021018505097    0.3099411129951477 Na
   0.6564686298370361    0.9784688353538514    0.7436022758483887 Na
   0.1181804314255715    0.9948721528053285    0.1635350883007050 Na
   0.7394104003906250    0.9820820689201355    0.3796903491020203 Zn
   0.1226425170898438    0.6719133257865906    0.5543277859687805 Sn
   0.4573775827884675    0.2674794197082520    0.0624634139239788 Sn
   0.7480533719062805    0.1730599701404572    0.5013502836227417 O
   0.3032240569591522    0.8830365538597107    0.6372689604759216 O
   0.6615822315216064    0.4746991097927094    0.1162740960717201 O
   0.4760698676109315    0.2271846532821656    0.8532717227935791 O
   0.1948166936635971    0.3652937412261963    0.1283943504095078 O
   0.2829968333244324    0.4576947987079620    0.4866133928298950 O
   0.9442034959793092    0.5491928458213806    0.7134326696395874 O
   0.4934203028678895    0.9851454496383667    0.2166457325220108 O
   0.9533346295356752    0.9925464987754822    0.9276589155197144 O
   0.9412978887557985    0.7865802645683290    0.3515723943710327 O
