Na4 Ti1 S3 O13                          
   1.00000000000000     
     5.5467210101751103    0.0081193688898242   -0.1461696938649536
    -2.2044715945382976    7.9533174363073593   -3.3751549739562874
     0.0026539015949740    0.0050423349715650    6.7067565139175249
   Na   Ti   S    O 
     4     1     3    13
Direct
  0.6088149726409606  0.4984627376759269  0.2822000118897658
  0.7948557553030449  0.8962779045607822  0.7190352027640898
  0.7897695012456654  0.8847065668641008  0.2157443853796663
  0.2086667579950912  0.6597794694558595  0.8484142390088959
  0.3430148608994872  0.1699861498681011  0.6090851419116292
  0.2842845086957007  0.7723778131363042  0.4131920105872718
  0.6706248801756775  0.4626468989987791  0.7624399764762323
  0.3550590258281883  0.0732957137936428  0.0607423698638023
  0.7609838185828973  0.5660928263672708 -0.0050512548761398
  0.3826179285445079  0.4196998522919937  0.7273573734684600
  0.3879823723960856  0.1872197280195804  0.2969253764493108
  0.3550010244697874  0.6975613015688015  0.1927569150352577
  0.7215348831912211  0.2958183813096776  0.6944185050527051
  0.4440357250707197  0.9587476458137261  0.5103372122094734
  0.0323116126544163  0.0955540222359330  0.5597692088558758
  0.3749080827181344  0.6930626363658370  0.5481861994066992
  0.0160385840619016  0.7632264133304639  0.4159424659935740
  0.1048283312981851  0.9485749536349967 -0.0001721215332141
  0.3690565402851789  0.1852494571974466  0.9388389004158382
  0.7838332720418663  0.5547125772289280  0.6325373794837085
  0.5534002162498947  0.9823091385018723  0.0117211972198245
 
  0.00000000E+00  0.00000000E+00  0.00000000E+00
  0.00000000E+00  0.00000000E+00  0.00000000E+00
  0.00000000E+00  0.00000000E+00  0.00000000E+00
  0.00000000E+00  0.00000000E+00  0.00000000E+00
  0.00000000E+00  0.00000000E+00  0.00000000E+00
  0.00000000E+00  0.00000000E+00  0.00000000E+00
  0.00000000E+00  0.00000000E+00  0.00000000E+00
  0.00000000E+00  0.00000000E+00  0.00000000E+00
  0.00000000E+00  0.00000000E+00  0.00000000E+00
  0.00000000E+00  0.00000000E+00  0.00000000E+00
  0.00000000E+00  0.00000000E+00  0.00000000E+00
  0.00000000E+00  0.00000000E+00  0.00000000E+00
  0.00000000E+00  0.00000000E+00  0.00000000E+00
  0.00000000E+00  0.00000000E+00  0.00000000E+00
  0.00000000E+00  0.00000000E+00  0.00000000E+00
  0.00000000E+00  0.00000000E+00  0.00000000E+00
  0.00000000E+00  0.00000000E+00  0.00000000E+00
  0.00000000E+00  0.00000000E+00  0.00000000E+00
  0.00000000E+00  0.00000000E+00  0.00000000E+00
  0.00000000E+00  0.00000000E+00  0.00000000E+00
  0.00000000E+00  0.00000000E+00  0.00000000E+00
