Generated by VASPKIT code
 1.000000
    4.2298693173236535    0.0034306157130608   -0.0045089066765872
   -0.0025062528012743    5.7659299060549678   -1.6704612564231942
    0.0167678759828916    0.5443164408693897   11.0603941567364714
   Bi   S 
     2     5
Direct
    0.8079715745710629    0.8864487928671307    0.5444745111371472    Bi001
    0.3045042006014718    0.5466115215298046    0.0824010171629027    Bi002
    0.8088694880730032    0.6528081909844002    0.2833963087770437     S001
    0.3074413916324710    0.9101965330995796    0.7002596069537478     S002
    0.8082259400891173    0.2971070631815027    0.5169097025710804     S003
    0.3076806913549566    0.1229173887024185    0.0971708383248911     S004
    0.8083723078898489    0.5019310584809692    0.9144850444791010     S005
