Na10 Sc1 Cu1 Se8
1.0
   6.9362044334411630    0.0000000000000000   -0.0296012442559007
  -0.4801594856378265    6.9665227343598906    0.0073576741851852
   0.0000000000000000    0.0000000000000000   11.3877973556518555
Na Sc Cu Se
10 1 1 8
direct
   0.5372437238693237    0.0748309642076492    0.7988451719284058 Na
   0.1558771729469299    0.3665340244770050    0.9687807559967041 Na
   0.0412812680006027    0.5792863965034486    0.6323020458221436 Na
   0.9269652962684631    0.7885595560073854    0.9679912924766541 Na
   0.0444299727678299    0.5798529982566833    0.3125545978546143 Na
   0.5403612852096558    0.5772873759269714    0.5467464327812195 Na
   0.5419632792472839    0.0776130259037018    0.0900643691420555 Na
   0.5426509380340576    0.0767478197813034    0.3831419348716736 Na
   0.0371532551944256    0.0792934596538544    0.6339195370674133 Na
   0.5455955862998962    0.5753802657127381    0.1476091444492340 Na
   0.0418883897364140    0.0793986991047859    0.3338606059551239 Sc
   0.5409358143806458    0.5761829018592834    0.8395819664001465 Cu
   0.7647241353988647    0.7962685823440553    0.7268351912498474 Se
   0.7426523566246033    0.3803786635398865    0.9592213630676270 Se
   0.3160286843776703    0.3589758574962617    0.7269239425659180 Se
   0.2382855564355850    0.8532119989395143    0.4639501869678497 Se
   0.2739436328411102    0.2855327725410461    0.2180588692426682 Se
   0.3399409949779510    0.7732197046279908    0.9610950946807861 Se
   0.8448544144630432    0.3081878125667573    0.4603569507598877 Se
   0.8117983937263489    0.8705295324325563    0.2164520770311356 Se
