Generated by VASPKIT code
 1.000000
    6.1751546295953021    0.4595438659308517    0.1792050764369000
    0.4590952128260875    6.0319578313909048    0.1352563965850816
    0.4578692574841510    0.3138394777895059    8.2121005950338635
   Re   Ge   N 
     2     1     8
Direct
    0.2100078638916659    0.7853843512262603    0.9682103509497283    Re001
    0.6861387341703942    0.2390603206215989    0.5074414699785984    Re002
    0.0951594164419799    0.2442124423339379    0.2038212702127528    Ge001
    0.8338905398576897    0.3255904348664211    0.6723118126839187     N001
    0.0320162036637310    0.0511167011952414    0.0389329872956130     N002
    0.1705790430042536    0.7844811580880530    0.7540613542461206     N003
    0.4020971953600640    0.3716199041184475    0.5333436183140283     N004
    0.7032156775893930    0.9344707744475376    0.5182801966254674     N005
    0.7976707366919593    0.3359368605225310    0.2962041865066614     N006
    0.1147820743873387    0.5296905137997766    0.0716226339231327     N007
    0.4984482014896910    0.7822650126626642    0.9982125953313075     N008
