Na6 Cu2 O5
1.0
   4.6779770851135254    0.0000000000000000    0.0612748973071579
   0.0325606067303792    6.2650602139871090    2.4723262786865225
   0.0000000000000000    0.0000000000000000    6.5069441795349121
Na Cu O
6 2 5
direct
   0.6181893348693848    0.1213215589523315    0.8703823089599610 Na
   0.6197628974914551    0.6172228455543518    0.1124524995684623 Na
   0.1196488291025162    0.3513641059398652    0.4636236429214478 Na
   0.1181084811687469    0.8745602965354919    0.7677154541015626 Na
   0.6184841990470886    0.6020965576171875    0.5941469669342041 Na
   0.1193250194191933    0.8918300867080690    0.2021990120410919 Na
   0.6210121512413025    0.0715189576148987    0.4201185703277587 Cu
   0.1185852140188217    0.3869079351425171    0.9687221050262452 Cu
   0.1204824894666672    0.5873759984970093    0.0913744345307350 O
   0.6186250448226929    0.8700948357582092    0.7094299793243407 O
   0.1184558048844337    0.1753034442663193    0.8690698742866517 O
   0.6192026138305664    0.8906369209289551    0.2662498950958251 O
   0.6182885169982910    0.3254494369029999    0.4690762758255005 O
