Generated by VASPKIT code
 1.000000
    5.7274083570809040    0.0354035213622357    1.1667207139295832
    1.7722726331652419    5.3825885120872821   -0.7764863419838532
    0.1341304002992776    0.0452834532671724    7.9994695639526459
   Zn   O 
     3     7
Direct
    0.3071745367901390    0.2697448971942534    0.2873317975815813    Zn001
    0.3282784965510255    0.8368417173928223    0.5678423879180148    Zn002
    0.9090020755213497    0.6774784309128180    0.9983401210653021    Zn003
    0.6053606694489976    0.0037615367200978    0.1038257432401506     O001
    0.7634871138694380    0.4503835185913257    0.8822734367367160     O002
    0.5311947668331005    0.0283074843950867    0.6535640152851084     O003
    0.1705775605645845    0.7289083617920724    0.8053948322057732     O004
    0.0881971445974314    0.5147065940062826    0.1696787900577415     O005
    0.4574693050183206    0.5051100664252541    0.4050561493538317     O006
    0.1141172812174036    0.0864675214111430    0.4383058280161756     O007
