Na3 Bi1
1.0
   4.4344868659973145    0.0000000000000000   -2.0101442337036137
  -0.9036050347140476    4.3392714359378344   -2.0002572536468510
   0.0000000000000000    0.0000000000000000    5.8626785278320312
Na Bi
3 1
direct
   0.5218080282211304    0.1829276978969574    0.7374185323715210 Na
   0.2717639505863190    0.4331422746181488    0.2373843193054199 Na
   0.0213691871613264    0.6832090616226195    0.7373996973037720 Na
   0.7713865041732787    0.9330476522445678    0.2376028746366500 Bi
