Na3 Mo1 O1 F5
1.0
   5.6461606025695801    0.0000000000000000    0.0370968021452430
   2.8882136109816092    4.1325267417645231    2.9078931808471684
   0.0000000000000000    0.0000000000000000    5.8298316001892090
Na Mo O F
3 1 1 5
direct
   0.7363310456275940    0.0170636884868145    0.5216315388679504 Na
   0.1761319637298584    0.0035155273508281    0.0101440390571952 Na
   0.9556574225425720    0.5113646388053894    0.2767477035522461 Na
   0.4715741872787476    0.5036118626594543    0.7655169963836670 Mo
   0.7388882040977478    0.3833380341529846    0.6094732284545898 O
   0.5364785790443420    0.0633597597479820    0.0201183557510376 F
   0.3611927032470701    0.9641542434692384    0.5785572528839110 F
   0.1389976739883423    0.6764232516288757    0.4543246924877166 F
   0.1447922140359879    0.6593418121337891    0.9372138977050781 F
   0.7632277011871338    0.3552583754062653    0.1021780371665955 F
