Na6 Fe4 O7                              
   1.00000000000000     
     5.4506607564956742    0.1821450351804615    1.7557946620534799
     0.8948326334684226    5.2278013425926497   -2.1789051216838913
     0.1254005198997934    0.5501971056202548    7.5529467173039686
   Na   Fe   O 
     6     4     7
Direct
  0.1673851896898171  0.5538102546696416  0.4524361966971945
  0.6784553474653933  0.0056392380756599  0.1850592829915719
  0.5766207372546455  0.4658466806288967  0.6310305152059101
  0.2317941303233691  0.0112892760100848  0.0071533171789792
 -0.0099044724966570  0.4995596763464593  0.8467560680638270
  0.4546440596991440  0.5307935929318687  0.0490707555952243
  0.0291452564253318  0.0487799909822237  0.4477021196392899
  0.7872159120365834  0.9775911892028888  0.7253437605953047
  0.3697011262833307  0.9711714309646770  0.5871691199176160
  0.8323531399461619  0.5515031117107917  0.2851259175195670
  0.9201671309472873  0.2717954448539903  0.3238498697046248
  0.6367265383567482  0.7803564715881738  0.8822890122037753
  0.4885858001617995  0.1729291136036861  0.7789242958988156
  0.5278561764650183  0.7069163090017231  0.3525105831095039
  0.0898095614734387  0.8903890132301991  0.7474369158175711
  0.2589738351796164  0.2257796609887887  0.5156081638499256
  0.0436100844550882  0.7614986349489739  0.2330046779762774
 
  0.00000000E+00  0.00000000E+00  0.00000000E+00
  0.00000000E+00  0.00000000E+00  0.00000000E+00
  0.00000000E+00  0.00000000E+00  0.00000000E+00
  0.00000000E+00  0.00000000E+00  0.00000000E+00
  0.00000000E+00  0.00000000E+00  0.00000000E+00
  0.00000000E+00  0.00000000E+00  0.00000000E+00
  0.00000000E+00  0.00000000E+00  0.00000000E+00
  0.00000000E+00  0.00000000E+00  0.00000000E+00
  0.00000000E+00  0.00000000E+00  0.00000000E+00
  0.00000000E+00  0.00000000E+00  0.00000000E+00
  0.00000000E+00  0.00000000E+00  0.00000000E+00
  0.00000000E+00  0.00000000E+00  0.00000000E+00
  0.00000000E+00  0.00000000E+00  0.00000000E+00
  0.00000000E+00  0.00000000E+00  0.00000000E+00
  0.00000000E+00  0.00000000E+00  0.00000000E+00
  0.00000000E+00  0.00000000E+00  0.00000000E+00
  0.00000000E+00  0.00000000E+00  0.00000000E+00
