Generated by VASPKIT code
 1.000000
    7.6866470891317693   -0.1052963624958880   -0.9035087600611350
    0.1766800092244614    5.5469454089983072    1.6421064860815364
   -0.3662436858617282    0.1760067736515950    7.6588803387633293
   Cr   P    O    F 
     2     3    11     2
Direct
    0.7913155451943663    0.8289911841167219    0.8922059808118047    Cr001
    0.7471926184268898    0.1037376168395589    0.9491463802314095    Cr002
    0.5565175748262363    0.1452592031940295    0.5684313854410404     P001
    0.0640580171453167    0.6315183400932879    0.2695075294829857     P002
    0.0791723695642463    0.4780898271142384    0.9423248708264450     P003
    0.0266120719319387    0.7506080002085032    0.8429875900447047     O001
    0.0643062972522778    0.4197773214653939    0.1613573094544044     O002
    0.9508901024374331    0.3075273397910563    0.8713977229803338     O003
    0.0569500229851079    0.4942787889257345    0.4704901169033057     O004
    0.6067318125572259    0.2906723160263392    0.7143772182580519     O005
    0.2666966738493251    0.4218280137240550    0.9325852099572736     O006
    0.8864560300641756    0.7755841565368796    0.1740856579873742     O007
    0.2267863207816480    0.7743556144008664    0.2349235922950937     O008
    0.3747204597968415    0.0364741868607648    0.5776575070988903     O009
    0.5693425047951013    0.3236242110198386    0.3784537249557586     O010
    0.6976745090574819    0.9265905974636114    0.6247126932431425     O011
    0.5553137008828302    0.0151170874425798    0.0795353047016325     F001
    0.6151561937134746    0.6056491864154494    0.9447705835462196     F002
