Generated by VASPKIT code
 1.000000
    6.2592167070536568    0.1380511155370890    0.0590915879152175
    3.2123966684973850    5.3223649078894262    0.1676541148076087
    0.0298040334828148    0.1284337988226016    5.7329216756935955
   Fe   O 
     2     6
Direct
    0.2380302130189165    0.0242234195253964    0.3569970703071849    Fe001
    0.2415368013904690    0.5491746994316646    0.5950103787372787    Fe002
    0.5499158120021616    0.3269706821376258    0.7344492889714347     O001
    0.5361627629408898    0.8279243233885184    0.2057468464464378     O002
    0.9234421214280639    0.1879272742520940    0.2196628783208003     O003
    0.9227914259562697    0.6997524563483963    0.7186390864181955     O004
    0.2430429768027522    0.3133887721599938    0.4108236947716062     O005
    0.2676096159423133    0.8313932686477092    0.6122257510062824     O006
