Na4 Cr4 O8                              
   1.00000000000000     
     2.8694143927476592   -0.0018229435409568    0.0049273014927923
    -0.0379190902530069    4.9954557084782234   -0.0052720352145797
     0.0041253429771643   -0.0029984825501522   11.1527786687504005
   Na   Cr   O 
     4     4     8
Direct
  0.9717888492158816  0.3749719310357424  0.0478361822519763
  0.9723923485502669  0.7085678819186189  0.5474360666442439
  0.4736655783419206  0.2055720592507892  0.5481632788782037
  0.4731357012164302  0.8699253768619355  0.0484660782710097
  0.4799309779839047  0.5101241488541999  0.7977807268597927
  0.9666410548486001  0.0808147507594391  0.2994527485941618
  0.4799902362253080  0.4966844763400918  0.2957034727540515
  0.9659742586378692  0.0655464004325470  0.7970607124180081
  0.4687468781049005  0.8739285041801853  0.6956269244039617
  0.9739502465096718  0.7091483152926826  0.1991700121854588
  0.4703522955373302  0.8718405608822397  0.3965642430468254
  0.9783990999397871  0.3782621747887557  0.4137860704521049
  0.9759684243522088  0.7091517889938354  0.9004655375409898
  0.9762008702557164  0.3761104976489945  0.6863981870629795
  0.4679772044670705  0.2030850322111027  0.1816511083747846
  0.4676076454870536  0.2037596252492428  0.9085483251026140
 
  0.00000000E+00  0.00000000E+00  0.00000000E+00
  0.00000000E+00  0.00000000E+00  0.00000000E+00
  0.00000000E+00  0.00000000E+00  0.00000000E+00
  0.00000000E+00  0.00000000E+00  0.00000000E+00
  0.00000000E+00  0.00000000E+00  0.00000000E+00
  0.00000000E+00  0.00000000E+00  0.00000000E+00
  0.00000000E+00  0.00000000E+00  0.00000000E+00
  0.00000000E+00  0.00000000E+00  0.00000000E+00
  0.00000000E+00  0.00000000E+00  0.00000000E+00
  0.00000000E+00  0.00000000E+00  0.00000000E+00
  0.00000000E+00  0.00000000E+00  0.00000000E+00
  0.00000000E+00  0.00000000E+00  0.00000000E+00
  0.00000000E+00  0.00000000E+00  0.00000000E+00
  0.00000000E+00  0.00000000E+00  0.00000000E+00
  0.00000000E+00  0.00000000E+00  0.00000000E+00
  0.00000000E+00  0.00000000E+00  0.00000000E+00
