Generated by VASPKIT code
 1.000000
    5.2095081050879575    0.0137046155003104   -0.6692463368216911
   -1.7631633443717665    6.0420187024367928    0.2885443505285395
    0.0579702537859176    0.0186962602327029    5.8684626094122425
   Fe   O 
     2     7
Direct
    0.7644591379718841    0.4032523115426017    0.5978544863928853    Fe001
    0.2838151339444162    0.5392922900544145    0.3924810957321762    Fe002
    0.0314860103841965    0.2676798749366740    0.5173642851257670     O001
    0.5495383567215769    0.5720639354295264    0.6870451867770657     O002
    0.4931864810161763    0.8193312810151953    0.2682640401796884     O003
    0.0492895924600265    0.6591011832169101    0.5319101141710025     O004
    0.5344711884629731    0.3786308587542276    0.3446987979214748     O005
    0.1084736725899549    0.4736898337745360    0.1099576638021411     O006
    0.6181559658964210    0.1584220406699471    0.7689639145358188     O007
