K1 Na2 Ti1 O3 F1
1.0
   3.8992922306060791    0.0000000000000000    0.0360969156026843
   1.9471885794132502    5.4992984668104903   -2.9526772499084473
   0.0000000000000000    0.0000000000000000    6.0286431312561035
K Na Ti O F
1 2 1 3 1
direct
   0.2503141760826111    0.8325456976890564    0.5659387707710266 K
   0.4529421925544739    0.4300739169120789    0.8952249884605408 Na
   0.0093196500092745    0.3148823082447052    0.2937575280666351 Na
   0.7342061400413513    0.8628132343292236    0.0460794270038604 Ti
   0.5908926129341125    0.1474680006504059    0.0399189144372940 O
   0.2259711176156997    0.8825154900550843    0.1187454238533974 O
   0.8689603209495546    0.5988529324531555    0.7284408807754517 O
   0.8487136363983155    0.6345044374465942    0.2127925902605056 F
