Cs3 Na2 Sn1 F9
1.0
   6.5461978912353516    0.0000000000000000    0.0228700377047056
   3.2651990332892638    5.1709946601061114    2.4013650417327890
   0.0000000000000000    0.0000000000000000    8.9821891784667969
Cs Na Sn F
3 2 1 9
direct
   0.7512418031692505    0.7283921241760254    0.0497575700283050 Cs
   0.5307193398475647    0.1688490211963654    0.3898606300354003 Cs
   0.9717766642570496    0.2876497209072113    0.7106626033782959 Cs
   0.1281088739633561    0.9758527278900146    0.1789106875658035 Na
   0.3754540085792542    0.4809996783733368    0.9203839898109436 Na
   0.2512586414813995    0.7286676168441772    0.5499270558357239 Sn
   0.2519603371620178    0.2272918075323105    0.0501400642096996 F
   0.2507847845554352    0.7279126644134521    0.0491390563547611 F
   0.0123873846605420    0.7697743177413940    0.7033146619796753 F
   0.7512692809104919    0.2293470501899719    0.0497804619371891 F
   0.4481440484523774    0.7700776457786560    0.7024085521697998 F
   0.0558218397200108    0.1197798028588295    0.3980680704116821 F
   0.0527026914060116    0.6859186291694641    0.3961158096790314 F
   0.4911695718765259    0.6856710910797119    0.3962441384792327 F
   0.4477057158946991    0.3362953960895538    0.7017716169357300 F
