Generated by VASPKIT code
 1.000000
    5.2474266701877275    0.0218254436786716    2.8751046738047146
    1.5266986337910629    5.1073629487127059    3.3929575784837227
   -0.0279191964336480    0.0955800246621926    6.2843580279277571
   Tl   Re   O 
     2     1     5
Direct
    0.6351730618047484    0.4339384116494751    0.2870535988138496    Tl001
    0.1344685736870256    0.9342853429482531    0.7868480583811659    Tl002
    0.9113096959709673    0.6521272299885722    0.5142222078941505    Re001
    0.7208324482064605    0.8409085278928548    0.7051788253031248     O001
    0.7530173932205820    0.3861196537636458    0.6719892367456762     O002
    0.1788958067222524    0.8092525615948185    0.2463816897722586     O003
    0.1770556527908877    0.3874529512870443    0.6721605589769982     O004
    0.7542731387808611    0.8090536560223901    0.2469320819969070     O005
