Na23 Tl3 Cu2 Au1 O16
1.0
   6.4636693000793457    0.0000000000000000    0.0486048571765425
   2.1501343615530577    9.2990286243036167    0.2305991649627688
   0.0000000000000000    0.0000000000000000   13.3888216018676758
Na Tl Cu Au O
23 3 2 1 16
direct
   0.8429534435272217    0.0035332457628101    0.4188023209571838 Na
   0.1597067415714264    0.8409045934677124    0.6373481154441833 Na
   0.2345341145992280    0.4728444218635559    0.2062276899814606 Na
   0.6565521955490112    0.1950397938489914    0.2071168273687363 Na
   0.4282899200916290    0.0955252125859260    0.9879540205001831 Na
   0.7319788932800293    0.9048155546188354    0.8178413510322571 Na
   0.2463897764682769    0.8407384157180786    0.8561257719993591 Na
   0.1832460314035416    0.8206391334533691    0.2800319194793701 Na
   0.5926466584205627    0.5684179067611693    0.8146934509277344 Na
   0.6978062987327576    0.0915628895163536    0.6480328440666199 Na
   0.5167748332023621    0.4260815083980560    0.0050519108772278 Na
   0.4961165785789489    0.6369968056678772    0.4334142208099365 Na
   0.0073040146380663    0.3186842203140258    0.0565592087805271 Na
   0.4437771439552307    0.7392586469650269    0.0559368953108788 Na
   0.1739108264446259    0.4287209808826446    0.8512693643569946 Na
   0.9258064031600952    0.3344887793064117    0.3918261229991913 Na
   0.6463681459426880    0.8674640059471129    0.2666893303394318 Na
   0.7962154150009155    0.2247213870286942    0.8437249064445496 Na
   0.1868423670530319    0.1464681923389435    0.2207358032464981 Na
   0.8888212442398071    0.3835045695304871    0.6040861606597900 Na
   0.4111258983612061    0.4025621116161346    0.6321141719818115 Na
   0.9343478083610535    0.6393931508064270    0.9809454083442688 Na
   0.3832969367504120    0.9715214371681213    0.4734578430652618 Na
   0.4385519325733185    0.2844461202621460    0.4226263165473938 Tl
   0.9200047850608826    0.9608699679374695    0.0554085783660412 Tl
   0.0160562172532082    0.6518355607986449    0.4709692895412445 Tl
   0.6292172670364380    0.7533167600631714    0.6148645281791687 Cu
   0.6991282105445862    0.5236354470252991    0.2201984971761703 Cu
   0.2530485093593597    0.1126344352960587    0.7496858835220337 Au
   0.4556265473365784    0.0960311144590378    0.3378646969795227 O
   0.9243318438529969    0.9847356677055359    0.2118151336908340 O
   0.7013151645660400    0.7957307100296019    0.4756577014923096 O
   0.1632910817861557    0.4189558923244476    0.4997290372848511 O
   0.9993341565132141    0.0145915048196912    0.7584026455879211 O
   0.1712119281291962    0.8209810853004456    0.4549103975296021 O
   0.4832098484039306    0.9117181301116944    0.6903294324874878 O
   0.9179006218910217    0.3675307929515839    0.2253308296203613 O
   0.8421664834022522    0.4302683472633362    0.9190622568130493 O
   0.2872555255889893    0.6190741658210754    0.9275548458099365 O
   0.3623105585575104    0.2716475725173950    0.0979338288307190 O
   0.5997253656387328    0.5688154697418213    0.6382878422737122 O
   0.7226737737655640    0.2365052849054337    0.5105226039886475 O
   0.6775658726692201    0.8707354664802550    0.9846479892730713 O
   0.4617398381233215    0.6613253951072692    0.2265991866588593 O
   0.4479130506515503    0.2431444078683853    0.7788203358650208 O
