Generated by VASPKIT code
 1.000000
    7.0496948692391888    0.0165723287697259    4.0602420767170093
    2.3410213974551310    6.6556977702638802    4.0583784786404351
    0.0061938778690917    0.0117352939460510    8.1332353607920851
   Cd   Cl
     1     8
Direct
    0.4316461405621386    0.4081403301038672    0.7504772471232638    Cd001
    0.6881313395558091    0.1511820778104304    0.4940354223553035    Cl001
    0.1745082604149521    0.1515786793245643    0.0070094670822894    Cl002
    0.1744453802950361    0.6654032228317545    0.4933637038728499    Cl003
    0.6813585726476515    0.6586197473313794    0.0002413655070000    Cl004
    0.1813248345442443    0.1584172763537832    0.5001960393369005    Cl005
    0.6884482175382808    0.6653450466454134    0.4933233084233014    Cl006
    0.6881137823219358    0.1516233158499630    0.0074128908153721    Cl007
    0.1746921179871710    0.6647292689144780    0.0072413796121621    Cl008
