Na8 Re2 Ge1 N8
1.0
   5.7825345993041992    0.0000000000000000   -0.1207121983170527
   0.0346951934400367    6.4052276320234007   -0.0905188173055643
   0.0000000000000000    0.0000000000000000    7.7710266113281250
Na Re Ge N
8 2 1 8
direct
   0.1557010859251022    0.9506431221961974    0.5419192314147950 Na
   0.7255625128746033    0.6784363985061644    0.7084499597549440 Na
   0.9032765626907349    0.7155277729034423    0.2343762218952179 Na
   0.6277796030044556    0.4093118309974670    0.9976921081542970 Na
   0.1541176140308380    0.4085631370544433    0.7053433060646058 Na
   0.8729802370071411    0.0155986147001386    0.8876002430915834 Na
   0.5626779198646545    0.0398871377110481    0.1983916908502579 Na
   0.4738148450851440    0.5962965488433838    0.3483847081661225 Na
   0.2801562249660492    0.7600303888320923    0.9997795224189759 Re
   0.6526799201965332    0.1930401027202606    0.5093297958374023 Re
   0.1204195693135262    0.2674854397773743    0.2412115633487702 Ge
   0.7478998303413391    0.2988792657852173    0.7179889678955079 N
   0.1584085822105408    0.0011314628645778    0.1239485740661621 N
   0.1437105089426041    0.7549385428428650    0.7844777107238771 N
   0.3388971388339996    0.2579349279403687    0.4419979751110077 N
   0.6990072131156921    0.9126746654510497    0.4779237806797028 N
   0.8107334375381470    0.3254429101943970    0.3133326768875123 N
   0.2109057605266571    0.5028658509254456    0.1148074939846993 N
   0.5963801145553589    0.7753445506095885    0.0076395301148295 N
