Ba1 La2 W1 O7
1.0
   5.8763327598571777    0.0000000000000000   -0.0937144756317155
   0.1180979468281157    5.4795796292981898    0.1118249148130419
   0.0000000000000000    0.0000000000000000    5.5861730575561523
Ba La W O
1 2 1 7
direct
   0.4939124882221222    0.5621380805969238    0.7335543632507324 Ba
   0.9922476410865784    0.5654166340827942    0.2345468252897263 La
   0.9907997846603394    0.0617472529411316    0.7342349290847778 La
   0.4944493770599365    0.0634851306676865    0.2348831444978714 W
   0.7668604850769043    0.2145853191614151    0.0735766962170601 O
   0.6447699666023254    0.7519783377647401    0.2097640633583069 O
   0.9900655150413513    0.5634784698486328    0.7357442378997803 O
   0.2159615457057953    0.9080570340156555    0.3980837464332581 O
   0.3406403362751007    0.3740184903144837    0.2623479366302490 O
   0.6490565538406372    0.0984627306461334    0.5366435050964355 O
   0.3344471454620361    0.0266137272119522    0.9297944307327271 O
