Generated by VASPKIT code
 1.000000
    6.4759665567412910    0.1780435371416203   -1.8678755677265204
   -3.9569329737158561    6.6003182635634179    0.6034404659171171
    0.4830955858723283    0.4424689273610053    9.8846732612176336
   Nd   Ga   Ge   S 
     1     1     2     9
Direct
    0.9648697346475305    0.1890121227681408    0.4982749014564285    Nd001
    0.3013378719432181    0.6746322677785336    0.1994943264019391    Ga001
    0.6774679901618867    0.5763052697989058    0.0027732274620832    Ge001
    0.7032678040199617    0.3598874724913063    0.6759555446852917    Ge002
    0.1494087342499215    0.3613940350019019    0.2737616073469176     S001
    0.8550381535274528    0.4974380774677775    0.4918441644636855     S002
    0.4563536714246341    0.7257597424859781    0.9999727052703502     S003
    0.5520814625238144    0.8886023913853988    0.3811736050909632     S004
    0.0316134022882741    0.7951792487705976    0.1277775845571719     S005
    0.7230334181038008    0.6293884256920603    0.7740231390168065     S006
    0.3317907378498275    0.1127915969730420    0.6224636064392337     S007
    0.5349131997627303    0.2678840843732402    0.0527706158252966     S008
    0.9130206659358451    0.2163652253150516    0.7764396370445198     S009
