Na6 Pd1 Cl8
1.0
   6.8014125823974609    0.0000000000000000    3.9535880088806157
   2.2830831259756792    6.4181072380141364    3.9484863281250000
   0.0000000000000000    0.0000000000000000    7.8732972145080566
Na Pd Cl
6 1 8
direct
   0.1890120357275009    0.3134148120880127    0.4770804643630981 Na
   0.1898065954446793    0.3136753737926483    0.9774131774902343 Na
   0.6902009844779968    0.3133509457111359    0.9763137102127074 Na
   0.6898234486579895    0.8140622973442078    0.9770888686180114 Na
   0.6898203492164612    0.8135295510292053    0.4770117998123168 Na
   0.1896288692951202    0.8141959905624390    0.4771698415279389 Na
   0.1897148191928864    0.8140181303024292    0.9769514799118041 Pd
   0.4193028211593628    0.0432917773723602    0.7482373118400574 Cl
   0.9607534408569336    0.0430937707424164    0.2063872218132018 Cl
   0.4188058674335480    0.5841835737228394    0.7480533123016357 Cl
   0.9606104493141174    0.5847309231758118    0.2061236500740051 Cl
   0.9400854110717773    0.5636404752731323    0.7274914383888245 Cl
   0.9596756696701050    0.0436628796160221    0.7475516796112061 Cl
   0.4395996332168579    0.0635815709829330    0.2272141426801681 Cl
   0.4192947447299957    0.5843492746353149    0.2065074443817139 Cl
