Na13 Fe2 W2 N11                         
   1.00000000000000     
     5.9933357621736958   -0.0057700306551628    0.8114268999533444
     1.5832106705215219    7.2440255345296345   -0.3503197529086350
    -0.0211457173054685    0.0104927803959938    9.6911381360172921
   Na   Fe   W    N 
    13     2     2    11
Direct
  0.8299125297521254  0.2137852247124682  0.7901958855833937
  0.9377853108720710  0.5264814451842662  0.5867959304696929
  0.3474835391971102  0.5963344854133582  0.3229339532997390
  0.9157353469153764  0.8921659720618289  0.5533678364907093
  0.0209730957809351  0.7307271864505542  0.8117316351418540
  0.6036158112718248  0.5977978868515419  0.9484040774841167
  0.6803338794479872  0.2096300013395069  0.1013599043500364
  0.2224495395060798  0.1972691519926541  0.5837109609212167
  0.4544632216244151  0.9845423064148346  0.8952276494263889
  0.4670865383718606  0.4568231353828333  0.6692081272206983
  0.0813831609191446  0.3232135023222805  0.2557920920472970
  0.7427568983183246  0.7581807538770177  0.2227289488493471
  0.2944755277692207  0.9869033390540777  0.3299959239593757
  0.4716802758131786  0.8058051823255686  0.6005289897146171
  0.1292935436253938  0.8889238988366530  0.1019820354356293
  0.6925391652918024  0.1458958838589553  0.3950889613961565
  0.1755811079634994  0.3718039222571842  0.9519083711397004
  0.5486832233472402  0.9676273758603517  0.4907700843146232
  0.0890724673620353  0.1506319589607404  0.0164051922170635
  0.8430085681196011  0.2533747532635394  0.5183240124359709
  0.9204992393509781 -0.0002686697063513  0.2564747116371230
  0.4851666238952599  0.3186780939884072  0.9212685715517667
  0.2538572488002986  0.7109707820004693  0.5668623556537117
  0.3916959607493439  0.8229180809307342  0.1202292408673810
  0.6422153641114895  0.7476107704795582  0.7196318909608280
  0.0591203971387126  0.6158703609027971  0.0547754873077887
  0.0951589403158886  0.3997884125132011  0.7778949116092233
  0.4522409457865874  0.2893395494373306  0.3325389763853813
 
  0.00000000E+00  0.00000000E+00  0.00000000E+00
  0.00000000E+00  0.00000000E+00  0.00000000E+00
  0.00000000E+00  0.00000000E+00  0.00000000E+00
  0.00000000E+00  0.00000000E+00  0.00000000E+00
  0.00000000E+00  0.00000000E+00  0.00000000E+00
  0.00000000E+00  0.00000000E+00  0.00000000E+00
  0.00000000E+00  0.00000000E+00  0.00000000E+00
  0.00000000E+00  0.00000000E+00  0.00000000E+00
  0.00000000E+00  0.00000000E+00  0.00000000E+00
  0.00000000E+00  0.00000000E+00  0.00000000E+00
  0.00000000E+00  0.00000000E+00  0.00000000E+00
  0.00000000E+00  0.00000000E+00  0.00000000E+00
  0.00000000E+00  0.00000000E+00  0.00000000E+00
  0.00000000E+00  0.00000000E+00  0.00000000E+00
  0.00000000E+00  0.00000000E+00  0.00000000E+00
  0.00000000E+00  0.00000000E+00  0.00000000E+00
  0.00000000E+00  0.00000000E+00  0.00000000E+00
  0.00000000E+00  0.00000000E+00  0.00000000E+00
  0.00000000E+00  0.00000000E+00  0.00000000E+00
  0.00000000E+00  0.00000000E+00  0.00000000E+00
  0.00000000E+00  0.00000000E+00  0.00000000E+00
  0.00000000E+00  0.00000000E+00  0.00000000E+00
  0.00000000E+00  0.00000000E+00  0.00000000E+00
  0.00000000E+00  0.00000000E+00  0.00000000E+00
  0.00000000E+00  0.00000000E+00  0.00000000E+00
  0.00000000E+00  0.00000000E+00  0.00000000E+00
  0.00000000E+00  0.00000000E+00  0.00000000E+00
  0.00000000E+00  0.00000000E+00  0.00000000E+00
