Generated by VASPKIT code
 1.000000
    6.2215421704061198   -0.0714482137451463    0.0035522678303377
   -0.3229743219250159    6.2120416910418541    0.0063338832340433
   -0.0037410950871442   -0.0082935173048095    7.0070883311168020
   Fe   O 
     2     8
Direct
    0.1520574344722539    0.4948658069438646    0.5119420929416479    Fe001
    0.7707466598634485    0.1137497325810656    0.0117711564411613    Fe002
    0.6572987080520173    0.0027718943490466    0.2381154335223644     O001
    0.1848014592701802    0.1952480608778877    0.5118901214657725     O002
    0.6628221321450209    0.3826183129563888    0.0118299069309173     O003
    0.2631619653207722    0.6086472395253282    0.7383000338229775     O004
    0.8833480105513648    0.6028082299884221    0.5119313160869633     O005
    0.6571310229970869    0.0027923653403580    0.7853186543664595     O006
    0.0703649658152652    0.0811630243715338    0.0117959811647871     O007
    0.2631392082794204    0.6087925488368702    0.2856822863531649     O008
