Na6 Cu1 P1 C3 O13
1.0
   6.0082864761352539    0.0000000000000000    0.6019979715347296
   0.7512229806425452    6.3190067524937268    0.5573959946632387
   0.0000000000000000    0.0000000000000000    8.7686100006103516
Na Cu P C O
6 1 1 3 13
direct
   0.2651035487651825    0.1019394323229790    0.2448584437370300 Na
   0.4274406731128693    0.8250362277030944    0.9153424501419067 Na
   0.9977474212646484    0.3306918144226074    0.8864361643791199 Na
   0.5907983779907227    0.3588664531707764    0.6417162418365479 Na
   0.9861236214637756    0.8089560866355896    0.6954195499420166 Na
   0.7652179598808289    0.1034474149346352    0.3137094378471375 Na
   0.5051128864288330    0.6016398072242737    0.2829046249389648 Cu
   0.9161050319671631    0.8165565729141235    0.0499983653426170 P
   0.0998848751187325    0.4108256995677948    0.4873162209987640 C
   0.4896294772624969    0.3319017887115479    0.0080064591020346 C
   0.5016388297080994    0.9051741361618042    0.5522807240486145 C
   0.6736310124397278    0.7586424946784973    0.1153014302253723 O
   0.4857382774353027    0.8605028986930847    0.4056749641895294 O
   0.3552803695201874    0.1935310065746307    0.9806807041168213 O
   0.0650436505675316    0.6415492296218871    0.9665563106536867 O
   0.0349959023296833    0.8820703029632568    0.1849383562803268 O
   0.9811546802520752    0.4633185267448425    0.6136711835861206 O
   0.8825474381446838    0.9966905117034911    0.9234343171119690 O
   0.5871179103851318    0.4443067908287048    0.8964650630950928 O
   0.3459959328174591    0.8741674423217773    0.6594749093055725 O
   0.6725710630416870    0.9999231100082397    0.5757972002029419 O
   0.0039339154027402    0.3274835944175720    0.3847774267196655 O
   0.5289950966835022    0.3440282642841339    0.1568078100681305 O
   0.3166041672229767    0.4473687410354614    0.4585302472114563 O
