Na3 Mn1 Ag1 Te3                         
   1.00000000000000     
     4.4205280355620742   -0.0188333081526269    0.0174885786449127
     0.0236253915244804    6.6067099251952941   -3.3507432747032917
    -0.0296232099809719   -0.0029970090772634    7.5209813196033339
   Na   Mn   Ag   Te
     3     1     1     3
Direct
  0.6878439463895532  0.7681385652662880  0.4240094090157723
  0.1890426161556216  0.1087939210171590  0.2265943079969178
  0.6885482575198048  0.2944801414401222  0.8897579509532113
  0.1891876067648360  0.5504293613719815  0.6850778719849330
  0.6883377790151278  0.7919858553078696  0.9216394151147171
  0.1866816442412074  0.9367569052243727  0.7566180403346183
  0.6882493104531890  0.3857311134598154  0.5193506910764689
  0.1881595751727116  0.6290551123471714  0.0678517273474429
 
  0.00000000E+00  0.00000000E+00  0.00000000E+00
  0.00000000E+00  0.00000000E+00  0.00000000E+00
  0.00000000E+00  0.00000000E+00  0.00000000E+00
  0.00000000E+00  0.00000000E+00  0.00000000E+00
  0.00000000E+00  0.00000000E+00  0.00000000E+00
  0.00000000E+00  0.00000000E+00  0.00000000E+00
  0.00000000E+00  0.00000000E+00  0.00000000E+00
  0.00000000E+00  0.00000000E+00  0.00000000E+00
