Na4 B2 Sb1 H1 O8
1.0
   4.7818965911865234    0.0000000000000000    0.8537549376487730
   1.0650417848706595    4.8935047719465574    2.9624578952789311
   0.0000000000000000    0.0000000000000000    7.7580103874206543
Na B Sb H O
4 2 1 1 8
direct
   0.5570660829544067    0.1120935007929802    0.2991887629032135 Na
   0.1216731220483780    0.2139465063810349    0.0013246517628431 Na
   0.6790052056312561    0.4088938832283020    0.6900191903114319 Na
   0.0125566441565752    0.9112664461135865    0.5925112962722778 Na
   0.4556692242622375    0.7427319288253784    0.8672187924385071 B
   0.2178662419319153    0.5295827388763428    0.4096851348876953 B
   0.8359884619712831    0.6865716576576233    0.1472251564264297 Sb
   0.3275538980960846    0.1685247719287873    0.6558842658996582 H
   0.5293251872062683    0.5439341664314270    0.3772335946559906 O
   0.6715059280395508    0.5422636270523072    0.0064053335227073 O
   0.1785802990198135    0.3848482966423035    0.6378470063209534 O
   0.6171804070472717    0.0512385033071041    0.0080268401652575 O
   0.5174082517623901    0.9107098579406739    0.6688153743743896 O
   0.1230220645666122    0.3625276088714600    0.3296289145946503 O
   0.1607668101787567    0.7590377926826477    0.9240452647209167 O
   0.0172937456518411    0.7978646755218507    0.3086605072021484 O
