Generated by VASPKIT code
 1.000000
    4.6589786601684029    0.1722724402794260   -1.4120527773011997
    0.1238097585956566    6.0894329889862231   -0.9078193332001598
    0.2237520309176851   -0.3333819820800807    9.8834316262314434
   Fe   P    O 
     2     4    15
Direct
    0.1949496285746112    0.4716961221227834    0.6635558465264260    Fe001
    0.4897725842232911    0.8955301903650152    0.3469914885385819    Fe002
    0.1012124243426700    0.9559508872183338    0.5724600910309168     P001
    0.8066700238032407    0.5464340042683793    0.8857368137544024     P002
    0.5880039948084396    0.4075448681448290    0.4426142364143572     P003
    0.8723095295617889    0.9134267063409497    0.1362834858529067     P004
    0.5088551797168926    0.1918315474065242    0.3333476048103381     O001
    0.7777984123473087    0.9165334512218004    0.5155578594829731     O002
    0.4755228640449004    0.3838102770518935    0.5701401054568335     O003
    0.9134729851122502    0.4398877578700285    0.4872154862416445     O004
    0.2163121082152724    0.9830550040356330    0.4459322913289501     O005
    0.0023326412938029    0.4053030349173595    0.9835937417767954     O006
    0.4385649909251587    0.5915217682819341    0.3570948013078346     O007
    0.7616692190591308    0.1470864055402636    0.1289242093646601     O008
    0.7505112172362031    0.7919214189322792    0.2316132339324467     O009
    0.9181263720367794    0.5897588572651706    0.7612361654125256     O010
    0.2539464605898265    0.7721355372368720    0.6565358760600114     O011
    0.1990197909477446    0.8652562920619598    0.1706931848433465     O012
    0.4965407328756047    0.4682869806808044    0.8349733614358338     O013
    0.1474956673637146    0.1746784390257166    0.6822813717232098     O014
    0.7606999539132734    0.7932797076304292    0.9722481928627796     O015
