Generated by VASPKIT code
 1.000000
    5.4918377760034538   -0.0826143126819441    1.2891391268253212
   -3.7155300019708473    6.0338171628725608   -2.4177205954527765
    0.3077769354450148   -0.0759224703052727    7.0326912154453396
   P    Pd   S    O    F 
     1     1     1     7     3
Direct
    0.6427025993823219    0.2587537845597997    0.3476906617228689     P001
    0.9678044050345878    0.0447493556393880    0.0243170199147682    Pd001
    0.3025489828722797    0.8352136863778571    0.7205986568074230     S001
    0.1981950287623326    0.6848644156061738    0.8552135680968618     O001
    0.8650316203983355    0.1879774678621451    0.3158810868823684     O002
    0.7486622049369780    0.4481850053916471    0.2534286207820536     O003
    0.3297778188041188    0.0708048423885176    0.3343007336236394     O004
    0.3268340075479159    0.7103312464191556    0.5064973028613780     O005
    0.0719529206752433    0.8915284398482890    0.7375557395384468     O006
    0.5827488441610994    0.0447947805099896    0.7738489754408004     O007
    0.1987566561260379    0.3321429445196420    0.9374907627104744     F001
    0.7295100569197288    0.7588974642757630    0.1097820492959894     F002
    0.6591459766220920    0.3845150473001307    0.5927606906033998     F003
