Na2 V1 H7 O6
1.0
   6.0408492088317871    0.0000000000000000   -1.4888311624526980
  -1.1266279533542731    5.7659993987057367   -1.7615895271301274
   0.0000000000000000    0.0000000000000000    5.0143342018127441
Na V H O
2 1 7 6
direct
   0.3143193423748016    0.7245216369628906    0.3214265704154968 Na
   0.5634906291961670    0.2552790641784667    0.2075998038053512 Na
   0.0896152928471565    0.2429583966732025    0.3138353228569031 V
   0.4429378807544708    0.4825594723224640    0.7391570210456848 H
   0.6892439723014832    0.0281223505735397    0.6994464993476868 H
   0.7340227961540222    0.7993164062500000    0.2776552140712738 H
   0.1285900324583053    0.9309597015380858    0.9052866697311401 H
   0.6075501441955566    0.8487339019775391    0.8552080988883972 H
   0.7963804006576538    0.5707589983940125    0.1154661998152733 H
   0.9359742403030396    0.2634434103965759    0.7200528979301453 H
   0.8879994153976440    0.1605949401855469    0.5027087926864624 O
   0.5687990188598633    0.9667779803276061    0.7713918685913086 O
   0.1918855905532837    0.9873986244201660    0.1107744798064232 O
   0.6551447510719299    0.6505326032638549    0.1348215788602828 O
   0.3652955889701843    0.4225400984287262    0.5458665490150452 O
   0.9870458841323853    0.4081951379776001    0.0971457064151764 O
