Na2 Zn4 Si2 O9
1.0
   5.1151628494262695    0.0000000000000000    0.0116861322894688
   0.0081509464104045    5.6831382473832299    0.0099255731329322
   0.0000000000000000    0.0000000000000000    7.0193848609924316
Na Zn Si O
2 4 2 9
direct
   0.2749656140804291    0.1007257178425789    0.5888094305992126 Na
   0.8085206151008606    0.4460570812225342    0.5904572010040283 Na
   0.8217878937721252    0.4369597136974335    0.0893240422010422 Zn
   0.7876341938972473    0.9355297684669496    0.3336259722709656 Zn
   0.2812681794166565    0.1113933995366097    0.0888364389538765 Zn
   0.7880421876907349    0.9339783191680908    0.8452782630920409 Zn
   0.3062519431114197    0.6067601442337037    0.8225092291831969 Si
   0.3051454424858093    0.6083371043205262    0.3559516370296478 Si
   0.6786795854568481    0.1035508662462235    0.0883563160896301 O
   0.7255337834358215    0.0599088594317436    0.5886701941490173 O
   0.1499999165534973    0.3757439553737641    0.8966593146324157 O
   0.2787902057170868    0.5729122757911682    0.5887110233306885 O
   0.6210113763809204    0.6084094047546387    0.8714776635169982 O
   0.1481653600931168    0.3752770125865937    0.2806789577007294 O
   0.6225573420524597    0.6090195775032043    0.3064330518245697 O
   0.1747837811708450    0.8612414598464967    0.8775499463081359 O
   0.1749365478754044    0.8623539805412294    0.3021820187568665 O
