Na3 Cr1 Re1 O8
1.0
   5.6762280464172363    0.0000000000000000    3.2404766082763676
   1.8973280456084469    4.9668598012391829    3.2596275806427002
   0.0000000000000000    0.0000000000000000    6.5546422004699707
Na Cr Re O
3 1 1 8
direct
   0.4819069802761078    0.7957662343978882    0.8335924148559570 Na
   0.9793534278869629    0.7954072952270508    0.3364135026931763 Na
   0.4824689328670502    0.7949650287628174    0.3371608853340149 Na
   0.8571551442146301    0.1655737608671188    0.7113356590270996 Cr
   0.1054347082972527    0.4236860871315002    0.9613530039787294 Re
   0.7795166969299316    0.5379061102867126    0.0661553367972374 O
   0.7521917223930359    0.0530289374291897    0.6058481931686401 O
   0.7529724836349487    0.0509171932935715    0.0341388098895550 O
   0.2208076417446136    0.0763290897011757    0.0755397677421570 O
   0.1814547032117844    0.0520759820938110    0.6061570644378662 O
   0.7428518533706665    0.5093141794204712    0.5974252223968506 O
   0.2115627676248551    0.5378640890121460    0.0667721033096313 O
   0.2107554972171783    0.5378615260124207    0.6353907585144043 O
