Na1 Li1 Zn1 S2
1.0
   3.7486944198608398    0.0000000000000000   -1.0778890848159794
  -0.3047617641175538    3.7527674409814149   -1.0891305208206175
   0.0000000000000000    0.0000000000000000    6.8319449424743652
Na Li Zn S
1 1 1 2
direct
   0.5277653336524963    0.1013054549694061    0.6628497242927551 Na
   0.2792692482471466    0.3528203964233398    0.1618983745574951 Li
   0.7770305871963501    0.8542093038558961    0.1627362668514252 Zn
   0.8887559175491334    0.4629416465759277    0.3828521072864532 S
   0.1688996255397797    0.7441989779472352    0.9434336423873900 S
