Na16 Cd2 O9
1.0
   5.2997379302978516    0.0000000000000000    1.7979521751403802
   2.6991798169844965    8.3911120056101662    0.9448009729385366
   0.0000000000000000    0.0000000000000000    8.8337068557739258
Na Cd O
16 2 9
direct
   0.1789539456367493    0.2296891957521439    0.9561008810997009 Na
   0.6767407059669494    0.2298371195793152    0.9556201696395874 Na
   0.8476361036300659    0.5628591775894165    0.2890593111515045 Na
   0.5252332687377930    0.2224304229021072    0.2895198166370392 Na
   0.6867638826370240    0.8938500285148621    0.2911683917045593 Na
   0.5145611763000487    0.8970263004302980    0.6226741671562195 Na
   0.3560003340244293    0.2282915860414505    0.6221682429313660 Na
   0.8501158952713013    0.2368541657924652    0.6226751208305359 Na
   0.6854423880577087    0.5653189420700073    0.6200770735740662 Na
   0.1848215907812119    0.5559716820716858    0.6290768384933472 Na
   0.0211231540888548    0.5637782216072083    0.9570350050926208 Na
   0.1846761107444763    0.9024295210838318    0.2831570208072662 Na
   0.3562213480472564    0.8959112167358398    0.9547976255416870 Na
   0.0210153143852949    0.2313066422939301    0.2898502349853516 Na
   0.8500277996063232    0.8956584334373475    0.9634507894515991 Na
   0.5243141651153564    0.5633217692375183    0.9487047791481018 Na
   0.0123957777395844    0.8964034914970398    0.6232533454895020 Cd
   0.3484234809875489    0.5614708662033081    0.2882163524627686 Cd
   0.7760623097419739    0.0578831434249878    0.4610849022865295 O
   0.4346533715724945    0.0626501291990280    0.1227250620722771 O
   0.4187507927417755    0.7292707562446594    0.4559616744518280 O
   0.1087273135781288    0.7248774170875550    0.1276654750108719 O
   0.4344174563884735    0.3958101272583008    0.7899516820907593 O
   0.7543300390243530    0.4021271169185638    0.1283440291881562 O
   0.0975529626011848    0.0568124204874039    0.7840415239334106 O
   0.7756242156028748    0.7344931960105897    0.7836851477622986 O
   0.1088601648807525    0.4014810025691987    0.4513806104660034 O
