Na1 V4 Cr1 O8
1.0
   5.2593011856079102    0.0000000000000000    3.0269815921783447
   1.7408847274040788    4.9477049573589840    3.0359106063842769
   0.0000000000000000    0.0000000000000000    6.0902252197265625
Na V Cr O
1 4 1 8
direct
   0.3099721074104309    0.2944613993167877    0.6783664822578430 Na
   0.9361650347709656    0.9205779433250426    0.7992215752601624 V
   0.9368313550949097    0.4146461784839630    0.3043821752071381 V
   0.9349557161331177    0.9201890230178833    0.3050798177719116 V
   0.5563166737556458    0.5444270968437195    0.9284022450447083 V
   0.4311769902706146    0.9201597571372986    0.3041213154792786 Cr
   0.6898453235626221    0.1444260030984879    0.0643256157636642 O
   0.1586850434541702    0.6781746745109558    0.0616497993469238 O
   0.6892976164817810    0.6794729828834534    0.5280789732933044 O
   0.1672012954950333    0.1495848000049591    0.1093508452177048 O
   0.7400972843170165    0.1501084566116333    0.5336236357688905 O
   0.1692104190587997    0.1493838578462601    0.5322024822235107 O
   0.1671893447637558    0.7259415984153746    0.5320536494255066 O
   0.6891300678253174    0.6797222495079041    0.0633766129612923 O
