Generated by VASPKIT code
 1.000000
    6.7441850836509971    0.0021938713501749   -0.5326324318233313
    0.2249072069025117    8.5355467482671639    0.5180671673482662
   -0.0535235941799736    0.4031245144411721   10.5456832168218781
   Ga   Cu   Ge   Se
     1     1     3    11
Direct
    0.1446676808167595    0.9714750762324940    0.7201959951258914    Ga001
    0.6709822298803871    0.4386447959078410    0.0842097699996458    Cu001
    0.1597349607401100    0.7354324181332146    0.0733541077706192    Ge001
    0.6099837843031111    0.2490678603431746    0.7009146047358428    Ge002
    0.4193609052216516    0.4031215246485971    0.3473295180372205    Ge003
    0.4765782190850558    0.6309132994849165    0.1959439643028347    Se001
    0.6276015143434392    0.4704857774486513    0.5356513494102870    Se002
    0.9622476600552758    0.5366749584102593    0.9885755297159307    Se003
    0.9498289890801743    0.1887006509514038    0.7933027862860129    Se004
    0.5844583326320958    0.2148519068914254    0.2379806337784984    Se005
    0.0933333866282382    0.3809547141301053    0.3950668483667457    Se006
    0.3529115284361239    0.8578159289384786    0.9098433854334900    Se007
    0.4723692513427338    0.3690080799709392    0.8690238985136318    Se008
    0.9619082356171447    0.7973362430855389    0.6008022239390058    Se009
    0.4437400019653026    0.0408927090987845    0.6055281467036764    Se010
    0.9959388596771177    0.9314463397632977    0.1717467602232219    Se011
