Na7 Mg1 Tl3 O9                          
   1.00000000000000     
     5.8711725920222531   -0.0449291962793047   -0.8226008523783108
    -2.3534542060299795    6.9671443419489654   -2.0338954944957841
    -0.0504105264389051   -0.0140995201247842    7.3926373798978515
   Na   Mg   Tl   O 
     7     1     3     9
Direct
  0.3097773318708990  0.5983125827304845  0.8890785945205446
  0.7639792620491819  0.3898740867340186  0.9960043851270384
  0.1214008214719423  0.8695756524823546  0.3058662787113734
  0.3879468430975906  0.9088848877202605  0.7108590683795691
  0.4807392317545383  0.2995678188579365  0.5316421443961820
  0.6010550101416200  0.6738201826452802  0.3688602935213488
  0.2042270397281460  0.1850490870374183  0.1274561887247942
  0.8642782269483075  0.1005623394251976  0.6274904869344269
  0.8700803203113229  0.7760365170850060  0.8375188347693963
  0.6522723782445519  0.0221158977933839  0.1827693830039277
  0.0070231922379866  0.4601226205598160  0.4712546173451264
  0.0329437967622259  0.1520691519738609  0.3938069748313741
  0.2688175161361826  0.8965637864973005  0.0122891981613022
  0.9690694175767848  0.8428907185721816  0.5914028789825738
  0.8125713684133096  0.0790613436486105  0.9113967528625462
  0.9054373135865085  0.4010493769776988  0.7344771665548415
  0.3827563234192304  0.5888240818185062  0.5857448341286492
  0.7133619607007011  0.7018917572729861  0.0617011746716858
  0.5332451291433233  0.9864960836763789  0.4526830908134414
  0.6560353796494653  0.3582371387220978  0.2718821627775969
 
  0.00000000E+00  0.00000000E+00  0.00000000E+00
  0.00000000E+00  0.00000000E+00  0.00000000E+00
  0.00000000E+00  0.00000000E+00  0.00000000E+00
  0.00000000E+00  0.00000000E+00  0.00000000E+00
  0.00000000E+00  0.00000000E+00  0.00000000E+00
  0.00000000E+00  0.00000000E+00  0.00000000E+00
  0.00000000E+00  0.00000000E+00  0.00000000E+00
  0.00000000E+00  0.00000000E+00  0.00000000E+00
  0.00000000E+00  0.00000000E+00  0.00000000E+00
  0.00000000E+00  0.00000000E+00  0.00000000E+00
  0.00000000E+00  0.00000000E+00  0.00000000E+00
  0.00000000E+00  0.00000000E+00  0.00000000E+00
  0.00000000E+00  0.00000000E+00  0.00000000E+00
  0.00000000E+00  0.00000000E+00  0.00000000E+00
  0.00000000E+00  0.00000000E+00  0.00000000E+00
  0.00000000E+00  0.00000000E+00  0.00000000E+00
  0.00000000E+00  0.00000000E+00  0.00000000E+00
  0.00000000E+00  0.00000000E+00  0.00000000E+00
  0.00000000E+00  0.00000000E+00  0.00000000E+00
  0.00000000E+00  0.00000000E+00  0.00000000E+00
