Generated by VASPKIT code
 1.000000
    5.8956310124785878   -0.0190792078188435    1.4173642397492510
   -1.1410391034870244    5.4188178668758145   -1.6984405029610166
   -0.0550305625739942   -0.0103379150452287    5.7712789808505640
   Zn   O 
     2     5
Direct
    0.8048022308049149    0.7960173036265532    0.0568581835007118    Zn001
    0.0315882560088533    0.6645008276289933    0.5958997341783374    Zn002
    0.9634869392762146    0.7212504118667538    0.2905393458498336     O001
    0.5776274350252559    0.9823418739094831    0.2726686439133604     O002
    0.6966916993454526    0.4853964414205202    0.8038246214594600     O003
    0.0528898307391228    0.9960400991562651    0.8422231132609436     O004
    0.2262147487125459    0.4229134823065355    0.4616247416757890     O005
