Na8 Co4 N8
1.0
   5.9766178131103516    0.0000000000000000   -1.3590794801712043
   0.4524501073258215    5.9322113007595414    0.7534719705581667
   0.0000000000000000    0.0000000000000000    8.1663045883178711
Na Co N
8 4 8
direct
   0.5836120843887329    0.5041617155075073    0.8899154663085938 Na
   0.9424712061882018    0.9102187156677246    0.8911465406417847 Na
   0.1216558888554573    0.4081069529056549    0.9843717813491824 Na
   0.4951608777046203    0.2933636903762817    0.5740998387336731 Na
   0.5572658777236938    0.1405648589134216    0.2756863832473755 Na
   0.0904965922236443    0.0751266330480576    0.3350009322166443 Na
   0.8835496902465819    0.5558889508247375    0.2888597548007965 Na
   0.2065107375383377    0.7455664873123169    0.6477469801902771 Na
   0.4325921237468719    0.0140206199139357    0.9244033098220825 Co
   0.3563563823699951    0.6692192554473877    0.2374697625637054 Co
   0.9910724163055419    0.2847004234790802    0.6488530635833740 Co
   0.7055321335792542    0.7959254384040833    0.5587503314018250 Co
   0.3352749943733215    0.7526548504829406    0.0062784696929157 N
   0.8619734048843383    0.0514415130019188    0.5564860105514526 N
   0.8178555369377136    0.2385695278644562    0.1000911369919777 N
   0.4281095564365386    0.8263843655586242    0.4231964945793152 N
   0.2710733413696289    0.2458765208721161    0.7762975096702576 N
   0.2681472897529602    0.4196066856384277    0.2909283638000488 N
   0.7090604305267334    0.0920296236872673    0.0401700399816036 N
   0.8416681289672850    0.5422512292861938    0.6834564208984375 N
