Na4 Cu3 C6 O17
1.0
   5.3900752067565909    0.0000000000000000   -0.1425645351409913
  -0.9806276347186226    7.8865453408426820    0.0909018367528908
   0.0000000000000000    0.0000000000000000    9.0115957260131836
Na Cu C O
4 3 6 17
direct
   0.5794773697853088    0.5513821840286255    0.9744884371757507 Na
   0.8145067095756531    0.1396684497594833    0.8719060420989990 Na
   0.7734533548355103    0.8916360735893251    0.4876980185508728 Na
   0.2607766687870026    0.5227293372154236    0.2834677398204803 Na
   0.0785183832049370    0.8313869237899780    0.0441476479172707 Cu
   0.5774501562118530    0.3851391077041626    0.6145254373550415 Cu
   0.6932229995727539    0.2270597666501999    0.2504399120807648 Cu
   0.2798381447792053    0.2030393183231354    0.0566892214119434 C
   0.5815982818603516    0.8785858154296876    0.1355562806129456 C
   0.0492884516716003    0.5271757245063783    0.8160743117332458 C
   0.3480035066604614    0.0422894731163979    0.6376565694808960 C
   0.7859155535697937    0.5843278765678406    0.3585590422153473 C
   0.0913651660084724    0.2172812968492508    0.4991778433322906 C
   0.5267586112022400    0.2470283359289169    0.0532663762569427 O
   0.1068378761410713    0.0952713340520859    0.6045699119567871 O
   0.9474361538887024    0.7043741941452026    0.3161343038082123 O
   0.3857226967811584    0.7644199728965760    0.1181516796350479 O
   0.8672697544097900    0.4203864634037018    0.7565498352050781 O
   0.3881115019321442    0.9014057517051698    0.5980030894279480 O
   0.8871681690216064    0.2025540471076965    0.4324218630790710 O
   0.9826049804687500    0.6380794048309327    0.9071089029312134 O
   0.6003202795982361    0.9769830107688905    0.2509564459323883 O
   0.5094106793403625    0.1598290652036667    0.6933171749114990 O
   0.7432969212532043    0.8861259222030641    0.0335197523236275 O
   0.2790496349334717    0.3296636044979095    0.4770058095455170 O
   0.6946730613708496    0.5845193266868592    0.4883196949958801 O
   0.2820458412170410    0.5063791275024414    0.7963391542434692 O
   0.1900207251310349    0.0709878057241440    0.9825031757354736 O
   0.1347278058528900    0.2998262643814087    0.1166395172476768 O
   0.6976963281631470    0.4744716882705688    0.2575957477092743 O
