Na4 Ti2 Si4 Ge2 O18
1.0
   5.4548544883728027    0.0000000000000000    0.6184019446372987
  -0.0143114664064087    6.9073090111120399    1.4686734676361082
   0.0000000000000000    0.0000000000000000   10.4797201156616211
Na Ti Si Ge O
4 2 4 2 18
direct
   0.2267552614212036    0.8542190194129944    0.2968238294124603 Na
   0.6096956729888916    0.4578221142292023    0.8002309799194336 Na
   0.4486861824989319    0.2841158807277679    0.1538286805152893 Na
   0.2201007455587387    0.8558787703514098    0.6894729733467101 Na
   0.1435699015855789    0.4255927503108978    0.5832780599594116 Ti
   0.6052626967430115    0.9965052008628845    0.9256197214126587 Ti
   0.7709645032882690    0.7282964587211609    0.2102345824241638 Si
   0.6614131331443787    0.7064263224601746    0.5148212909698486 Si
   0.9166557192802429    0.3314631283283233    0.3323396444320679 Si
   0.0929846465587616    0.2926086783409119    0.9238389730453491 Si
   0.7538736462593079    0.1138437837362289    0.5995715260505676 Ge
   0.1133181154727936    0.7212291359901428    0.9782472848892212 Ge
   0.7419436573982239    0.4872799217700958    0.2323249280452728 O
   0.3162738680839539    0.1425448060035706    0.9708570241928101 O
   0.6837925910949707    0.2592837512493134    0.4530118405818939 O
   0.1093014702200890    0.4606174230575561    0.3900079131126404 O
   0.0594482906162739    0.1632961928844452    0.2709880471229553 O
   0.6509667038917542    0.8873719573020935    0.5861287117004395 O
   0.1035491526126862    0.4656687676906586    0.0077195949852466 O
   0.3855631351470947    0.6186279058456420    0.5432658195495605 O
   0.8489690423011780    0.5580078363418579    0.5949293375015259 O
   0.8142344951629639    0.2028280049562454    0.9557282924652100 O
   0.7395094633102417    0.7813913226127625    0.3561683297157288 O
   0.5827577710151672    0.8512498736381530    0.1192423477768898 O
   0.1532485932111740    0.4015799462795258    0.7682042717933655 O
   0.8895981311798096    0.8333137035369873    0.8832607865333557 O
   0.6014402508735657    0.1451279371976852    0.7452030181884766 O
   0.0523720979690552    0.7692255973815918    0.1369806677103043 O
   0.3961792588233948    0.7854567170143127    0.8954464197158813 O
   0.0729464888572693    0.1524939537048340    0.6046504378318787 O
