Na2 Ca1 Sn1
1.0
   4.7270417213439933    0.0000000000000000    2.7282142639160161
   1.5812124330800250    4.4644097395841671    2.7275519371032724
   0.0000000000000000    0.0000000000000000    5.4660701751708984
Na Ca Sn
2 1 1
direct
   0.8902140259742737    0.8752709031105043    0.4484476447105408 Na
   0.6404169797897339    0.6260126233100891    0.1989674419164658 Na
   0.1404718756675720    0.1251317709684372    0.6993814706802368 Ca
   0.3906075358390808    0.3758711814880372    0.9493061900138855 Sn
