Na1 V1 Mo1 P1 O8                        
   1.00000000000000     
     5.2748745074395158   -0.2864026507147692   -2.0426631108639035
    -1.1603163122060378    5.0454376932556206   -0.6004030852437741
    -1.0543802314440860    0.8431948218512888    6.8447821329389500
   Na   V    Mo   P    O 
     1     1     1     1     8
Direct
  0.9739230281799318  0.5636173257328476  0.9209416518110404
  0.4391559715380120  0.0333849806106280  0.9049648296962521
  0.6712695019264148  0.5508615421614896  0.2979912981347018
  0.3298059417963268 -0.0063510115705441  0.4000256885275381
  0.5004131510814939  0.8144364789857125  0.3686326228309685
  0.4748870981384343  0.7229334284950089  0.9893887797471346
  0.3563214979364892  0.2580067668004688  0.2897084093654688
  0.9087257428368686  0.5045711739150849  0.5670787063825329
  0.1238869888801311  0.0416261942417666  0.8470337556957936
  0.6991315208139528  0.3059483789854266  0.1139457155194809
  0.4760236378385563  0.0738090485250423  0.6546374199012459
  0.0237130664647601  0.8441372440191961  0.3013980666365172
 
  0.00000000E+00  0.00000000E+00  0.00000000E+00
  0.00000000E+00  0.00000000E+00  0.00000000E+00
  0.00000000E+00  0.00000000E+00  0.00000000E+00
  0.00000000E+00  0.00000000E+00  0.00000000E+00
  0.00000000E+00  0.00000000E+00  0.00000000E+00
  0.00000000E+00  0.00000000E+00  0.00000000E+00
  0.00000000E+00  0.00000000E+00  0.00000000E+00
  0.00000000E+00  0.00000000E+00  0.00000000E+00
  0.00000000E+00  0.00000000E+00  0.00000000E+00
  0.00000000E+00  0.00000000E+00  0.00000000E+00
  0.00000000E+00  0.00000000E+00  0.00000000E+00
  0.00000000E+00  0.00000000E+00  0.00000000E+00
