Na8 Li6 Sn2 As7 Au1
1.0
   9.1746234893798810    0.0000000000000000   -0.3838197886943833
   4.0327287284649165    7.0843563697211618    0.3945228159427635
   0.0000000000000000    0.0000000000000000    8.3479118347167969
Na Li Sn As Au
8 6 2 7 1
direct
   0.6666666666666666    0.9467545747756959    0.6595340967178345 Na
   0.8178974390029906    0.7729822993278505    0.1397186219692230 Na
   0.7351578474044800    0.2152417451143265    0.9415572285652160 Na
   0.9688106179237366    0.1580425798892975    0.5551276206970215 Na
   0.3445262014865875    0.4597797393798829    0.7146084308624268 Na
   0.4319845438003539    0.9011279940605164    0.3610358238220215 Na
   0.3579151630401611    0.5113004446029663    0.1042705103754997 Na
   0.9875180721282959    0.4863259792327881    0.8337643146514893 Na
   0.3213708102703094    0.8135788440704346    0.7046163082122803 Li
   0.8049608469009399    0.4153180718421937    0.2132662534713745 Li
   0.5801833271980286    0.4394619762897491    0.4324311912059784 Li
   0.9643739461898804    0.7901416420936586    0.5092227458953857 Li
   0.1370572000741959    0.4027430415153503    0.4073005616664886 Li
   0.1378626972436905    0.0615413896739483    0.8856941461563110 Li
   0.4358186125755311    0.0809545069932938    0.9783012866973877 Sn
   0.0490559414029122    0.9535230398178101    0.1843957304954529 Sn
   0.2920558750629425    0.1456661373376847    0.6669571995735168 As
   0.2490600049495696    0.6730799078941345    0.4025707542896271 As
   0.7472380995750427    0.1280268281698227    0.3070714771747589 As
   0.8050816059112549    0.5957210063934326    0.4712777137756348 As
   0.1362801343202591    0.2256999760866165    0.1495343595743179 As
   0.0332139618694782    0.8308783769607544    0.8756538033485413 As
   0.5813101530075071    0.6688560843467714    0.9729945063591003 As
   0.6576247811317444    0.5435681343078613    0.7004948854446411 Au
