Na4 Li4 V1 Si2 B3 O14
1.0
   5.3887238502502441    0.0000000000000000   -0.2462489306926727
  -2.4509427108802999    7.1499900413900637   -1.6113791465759300
   0.0000000000000000    0.0000000000000000    9.0357303619384766
Na Li V Si B O
4 4 1 2 3 14
direct
   0.0730728730559349    0.5479848384857178    0.8021435737609863 Na
   0.8307607769966127    0.1357974708080292    0.0105352932587266 Na
   0.3313455283641815    0.2539223730564117    0.2438345998525620 Na
   0.3148998916149139    0.9486818909645081    0.5506470799446106 Na
   0.5277405381202698    0.4016951322555542    0.9295840263366699 Li
   0.9413604140281678    0.3229158818721771    0.4488043189048767 Li
   0.9009017348289491    0.1082670241594315    0.6213091611862183 Li
   0.6867588758468628    0.7871988415718079    0.7810312509536743 Li
   0.9923561811447145    0.7924129366874695    0.1187017038464546 V
   0.7170922756195069    0.7067347764968873    0.4418446719646454 Si
   0.4866487085819245    0.3774648904800415    0.6030620932579041 Si
   0.9146280288696290    0.4966940283775330    0.2064403891563416 B
   0.2721558213233948    0.9958604574203492    0.8954089283943176 B
   0.5328077673912048    0.8789047598838806    0.2407072782516479 B
   0.2857526838779450    0.1782539337873459    0.9682300090789795 O
   0.8716410994529725    0.8445816636085511    0.6012173891067505 O
   0.5253654122352600    0.7999243736267091    0.3660160303115845 O
   0.0483209677040577    0.8453496694564819    0.9197660684585571 O
   0.2003469020128250    0.2250928282737732    0.5397168993949890 O
   0.9311467409133912    0.3451783955097198    0.2437998503446579 O
   0.4884918034076691    0.5233303308486938    0.7670025229454041 O
   0.7348299622535707    0.8983326554298402    0.1500137597322464 O
   0.5496120452880859    0.4983671605587006    0.4642982184886932 O
   0.9219528436660768    0.6658657789230347    0.3132399916648865 O
   0.8985505700111390    0.5232481956481934    0.0569805875420570 O
   0.4652091860771180    0.9531998634338379    0.8155053853988647 O
   0.7215437293052673    0.2848629653453827    0.6133878231048584 O
   0.3252652585506439    0.9413258433341980    0.2118266671895981 O
