Na15 In3 O12
1.0
   6.3248791694641113    0.0000000000000000    0.0829774513840664
  -1.4553933848332290    9.3980792430690610    0.0873122438788409
   0.0000000000000000    0.0000000000000000    7.8291845321655273
Na In O
15 3 12
direct
   0.8097224235534668    0.5875364542007447    0.4355365037918091 Na
   0.8304579854011536    0.7877178788185121    0.9088712334632874 Na
   0.6776881814002991    0.8753178119659424    0.5837475061416625 Na
   0.0156565327197313    0.2461894303560257    0.4510575532913208 Na
   0.0215744599699974    0.2476706355810166    0.8535888195037842 Na
   0.5995220541954041    0.0970444157719612    0.3456069529056549 Na
   0.2511440515518189    0.7553861737251283    0.0083301104605198 Na
   0.1717710644006729    0.7912275791168213    0.3501089215278625 Na
   0.8204622864723206    0.5437856912612915    0.8361616730690002 Na
   0.3959535658359528    0.4358427226543427    0.3331911861896515 Na
   0.1428423076868058    0.9639691114425660    0.6596193909645081 Na
   0.6732944846153259    0.8120658993721008    0.2284262478351593 Na
   0.4035987854003906    0.4231888651847839    0.9673428535461426 Na
   0.6023104190826416    0.0704152733087540    0.9318617582321167 Na
   0.8692066669464111    0.4032173752784729    0.1534249782562256 Na
   0.1186444237828255    0.0613250769674778    0.1515114903450012 In
   0.3089874684810638    0.6067686080932618    0.6511422991752625 In
   0.5437391400337219    0.2741170525550842    0.6484997868537903 In
   0.2554006278514862    0.3729018270969391    0.6496406793594359 O
   0.0296475663781166    0.7054836750030518    0.6620683670043945 O
   0.9299449324607849    0.6559504270553589    0.1442963927984238 O
   0.3918979465961456    0.9597256183624268    0.1555566787719727 O
   0.4883680343627930    0.0549552328884602    0.6400964856147766 O
   0.1695538610219955    0.2884294390678406    0.1556704789400101 O
   0.9558100700378418    0.0119124483317137    0.9176527261734009 O
   0.9344505667686462    0.9967166185379029    0.3754142224788666 O
   0.6959891319274902    0.3213991820812226    0.8847449421882629 O
   0.7029234170913696    0.3409544527530671    0.4190127849578857 O
   0.5038662552833557    0.6560215353965759    0.8615651726722717 O
   0.4762281477451324    0.6745090484619141    0.4312752485275268 O
