Na4 P1 Pd1 S1 O7 F3
1.0
   5.4028863906860352    0.0000000000000000    1.0270330905914309
  -3.5130138452500428    5.9980880386336954   -2.1556625366210946
   0.0000000000000000    0.0000000000000000    6.8980336189270020
Na P Pd S O F
4 1 1 1 7 3
direct
   0.1142995133996010    0.3099120855331421    0.6322892904281616 Na
   0.6750673055648804    0.4259706735610962    0.9108716845512391 Na
   0.8324074149131775    0.7963387966156006    0.4368616640567780 Na
   0.2663599252700806    0.6800577044487000    0.1732126474380493 Na
   0.6255101561546326    0.2564511001110077    0.3373835384845734 P
   0.9763433337211609    0.0555565468966961    0.0441336296498775 Pd
   0.3201912343502045    0.8418236374855042    0.7286140322685243 S
   0.1928877532482147    0.6652271747589111    0.8449383378028871 O
   0.8416523337364197    0.1849268972873688    0.3329214155673981 O
   0.7514095306396484    0.4420716166496277    0.2321579009294510 O
   0.3301623463630676    0.0645904168486595    0.2831154167652130 O
   0.3498520255088806    0.7318128347396851    0.5163436532020569 O
   0.1111500412225723    0.9221223592758179    0.7436456084251405 O
   0.6012852191925049    0.0371826402842999    0.7995123267173768 O
   0.2156409770250320    0.3435459136962891    0.9716414213180543 F
   0.7209172844886780    0.7602998018264771    0.0986695960164070 F
   0.5958056449890137    0.3770518004894257    0.5721526145935059 F
