Generated by VASPKIT code
 1.000000
    6.9121472013372962   -0.2836602651327177    0.9757420335056203
   -0.6203421506888638    6.8792678668284530    0.6180267015924937
    0.1515688714292848   -0.4111167413653625    8.9889188626712553
   Ta   Bi   O 
     1     6    14
Direct
    0.8990298214560205    0.8838832249361855    0.4161650062337247    Ta001
    0.9286282313096771    0.1362902227281718    0.0684900250780722    Bi001
    0.9313919943558705    0.5056025480880043    0.7006048110219948    Bi002
    0.4093818352913184    0.0190946616470797    0.2137190240388457    Bi003
    0.3996755865412441    0.3773918201822769    0.8710347568069420    Bi004
    0.7432181742938211    0.5995188155537898    0.0740126142918743    Bi005
    0.4326921349305577    0.6269677867280732    0.5125969251877004    Bi006
    0.0406060253827770    0.4376637859241609    0.0245771315393743     O001
    0.8791130633232349    0.0264483145281977    0.5858836737941870     O002
    0.6506094014323288    0.2467955049932714    0.1900843809628808     O003
    0.1384505419123343    0.7727419194394077    0.4432958911872029     O004
    0.7622677571523432    0.5969371980388324    0.5244021491947944     O005
    0.7013026287832631    0.3014336700836043    0.8184747352386365     O006
    0.6103976433770993    0.8970299893198624    0.3987451297617885     O007
    0.8838170917459530    0.7333655041106795    0.8488029165912273     O008
    0.3717426082960849    0.7415240977603281    0.7184256962663695     O009
    0.9334820333859606    0.7695157819838515    0.1953668722039141     O010
    0.0025514071733629    0.1333281892621641    0.2929976443953115     O011
    0.2777752983012494    0.1024041379695950    0.9910026574851404     O012
    0.5187607265302367    0.8148226901924713    0.0673324042573165     O013
    0.3479164453154511    0.2999965176636538    0.6575426600609933     O014
