Na18 Cu1 Sn3 Se14                       
   1.00000000000000     
     7.3878934162283594    0.2025773110949880    0.6292848774420998
     0.1220326555627951    8.6595420978155087   -0.2562804066401780
    -0.3121181181677210   -0.4065475920228964   16.0343427360567823
   Na   Cu   Sn   Se
    18     1     3    14
Direct
  0.7507595808915970  0.8444430449339686  0.5761097630800338
  0.8950649263416227  0.5726024312462163  0.3918034015267251
  0.8862229550440226  0.0582649795540817  0.1559130208368499
  0.8224551098836079  0.0534474733069862  0.8599557942378938
  0.7343503968354957  0.4119898099656311  0.2118956358842158
  0.7411923197617724  0.5884049815980990  0.9369954043572776
  0.2724212933930193  0.8347795826764562  0.8244033760321823
  0.6124778406795375  0.1792812839211434  0.3712818723893480
  0.2407938520450636  0.2043139177425746  0.7252517540444947
  0.1904985988498258 -0.0012558718524938  0.2906288343625527
  0.2661021327899215  0.3926766309070082  0.2387972177338945
  0.2269750156570521  0.3883889573279795  0.9009472974447033
  0.6771091929964996  0.2754415803689542  0.6825120372372875
  0.4675809132450519  0.4889482518337095  0.5444317834833370
  0.3636734415959835  0.9391083207506400  0.0330126453136858
  0.5658048226564028  0.7757598811029675  0.2215826283875440
  0.5466692260459963  0.2666863558656565  0.0329439951516634
  0.0871622508235618  0.2270067001554250  0.4813428481423538
  0.2761976136091239  0.7153502765604075  0.3999920641108693
  0.2771608457564104  0.8623603656889713  0.5716283463540710
  0.0721729875949203  0.6317998955062294  0.0836436730957850
  0.0083881305919096  0.5852546051955858  0.7121525873851210
  0.8960663438108971  0.3698565883406813  0.8112631963637897
  0.3603142045164874  0.5347506831718084  0.7288530932426034
  0.4228772130143913  0.5922605931463059  0.0705909741118995
  0.0089846449371125  0.9371922202764925  0.6982756516524692
  0.9675801118925496  0.7426734146428303  0.2285214627991762
  0.4456495908450159  0.1029218164678955  0.8821361873565017
  0.0446873718169960  0.8875791820826394  0.4488618520541758
  0.9417186544711214  0.3684514000384281  0.0492103662600615
  0.4519194099659142  0.1316655772588437  0.5522632972857930
  0.4947186856022639  0.1004543180446445  0.1871724171915569
  0.9636250585040131  0.2617254613317026  0.3164608576271978
  0.8761513927343666  0.4892801373627596  0.5692668551355479
 -0.0059848768024064  0.8369056702872455  0.9807036656500426
  0.5054657888485792  0.5452211166514505  0.3586205475110898
 
  0.00000000E+00  0.00000000E+00  0.00000000E+00
  0.00000000E+00  0.00000000E+00  0.00000000E+00
  0.00000000E+00  0.00000000E+00  0.00000000E+00
  0.00000000E+00  0.00000000E+00  0.00000000E+00
  0.00000000E+00  0.00000000E+00  0.00000000E+00
  0.00000000E+00  0.00000000E+00  0.00000000E+00
  0.00000000E+00  0.00000000E+00  0.00000000E+00
  0.00000000E+00  0.00000000E+00  0.00000000E+00
  0.00000000E+00  0.00000000E+00  0.00000000E+00
  0.00000000E+00  0.00000000E+00  0.00000000E+00
  0.00000000E+00  0.00000000E+00  0.00000000E+00
  0.00000000E+00  0.00000000E+00  0.00000000E+00
  0.00000000E+00  0.00000000E+00  0.00000000E+00
  0.00000000E+00  0.00000000E+00  0.00000000E+00
  0.00000000E+00  0.00000000E+00  0.00000000E+00
  0.00000000E+00  0.00000000E+00  0.00000000E+00
  0.00000000E+00  0.00000000E+00  0.00000000E+00
  0.00000000E+00  0.00000000E+00  0.00000000E+00
  0.00000000E+00  0.00000000E+00  0.00000000E+00
  0.00000000E+00  0.00000000E+00  0.00000000E+00
  0.00000000E+00  0.00000000E+00  0.00000000E+00
  0.00000000E+00  0.00000000E+00  0.00000000E+00
  0.00000000E+00  0.00000000E+00  0.00000000E+00
  0.00000000E+00  0.00000000E+00  0.00000000E+00
  0.00000000E+00  0.00000000E+00  0.00000000E+00
  0.00000000E+00  0.00000000E+00  0.00000000E+00
  0.00000000E+00  0.00000000E+00  0.00000000E+00
  0.00000000E+00  0.00000000E+00  0.00000000E+00
  0.00000000E+00  0.00000000E+00  0.00000000E+00
  0.00000000E+00  0.00000000E+00  0.00000000E+00
  0.00000000E+00  0.00000000E+00  0.00000000E+00
  0.00000000E+00  0.00000000E+00  0.00000000E+00
  0.00000000E+00  0.00000000E+00  0.00000000E+00
  0.00000000E+00  0.00000000E+00  0.00000000E+00
  0.00000000E+00  0.00000000E+00  0.00000000E+00
  0.00000000E+00  0.00000000E+00  0.00000000E+00
