V2 As1 S1 O8
1.0
   4.9602799415588379    0.0000000000000000   -0.0097107468172913
  -1.9508058928197172    4.5472974415856839   -0.0166012383997436
   0.0000000000000000    0.0000000000000000    6.5057525634765625
V As S O
2 1 1 8
direct
   0.6799481511116028    0.0049501657485962    0.0781608000397682 V
   0.6798038482666016    0.0044214241206646    0.5597499012947083 V
   0.0245782732963562    0.6587479114532471    0.8195340633392334 As
   0.3308139145374298    0.3542461991310120    0.3186596930027008 S
   0.9740577340126038    0.2285305708646774    0.3179122209548950 O
   0.8885398507118225    0.2750340998172760    0.8197004199028015 O
   0.4087817072868347    0.7946144938468933    0.8212088942527771 O
   0.9158591032028198    0.7698937654495240    0.5982711911201477 O
   0.4564885497093201    0.7117370963096619    0.3196447789669037 O
   0.4392606317996979    0.2461011707782745    0.5128473639488220 O
   0.4387457966804504    0.2455637156963349    0.1241866871714592 O
   0.9150276780128479    0.7685579657554626    0.0399936437606812 O
