Na8 Li11 Al4 Fe1 O18                    
   1.00000000000000     
     5.7268137301961692   -0.0502416781478718    0.3968971779732087
    -3.0611436524784112    7.4364604373110854   -0.1120650965622717
    -0.0305091208243026   -0.1441599249024367   11.4844448119699862
   Na   Li   Al   Fe   O 
     8    11     4     1    18
Direct
  0.9202043745597652  0.4546293446104079  0.0448507294385203
  0.3026008467664040  0.2624808814164437  0.1369516341943129
  0.1298921063561260  0.1985678096163750  0.8820999347860466
  0.5296560663949027  0.9150745316363240  0.4715962564348412
  0.0565794295111755  0.7554134894085728  0.8680477798681741
  0.0020942461062615  0.7375727026770249  0.5988858964339103
  0.2122924449531147  0.8175793865263088  0.2194983493740170
  0.7808790459906396  0.3372549114449858  0.7544844578326039
  0.9493148670059799  0.9011999873085136  0.0677436334072294
  0.5981715991914799  0.6503169801306050  0.1850881084288363
  0.5667913274150819  0.5128879608179625  0.9215952296731761
  0.5745984744177901  0.3010530519936803  0.4076260232396358
  0.7838053915460345  0.8853281648341925  0.7366032039024878
  0.0811040786514880  0.0628903096025336  0.3721742643224294
  0.3205057275424285  0.5592546370068107  0.5250491567158685
  0.3876528070725273  0.6894492975984347  0.0182908249454303
  0.8039449633520683  0.6730652748921264  0.3811255900303799
  0.4584463126863891  0.9785327998637108  0.7093876132902411
  0.8793305707901594  0.2282117678600638  0.5296692691156494
  0.5568092779378404  0.0755547941761820  0.9689243952261691
  0.1902706279938782  0.4919025849847612  0.3190431149707987
  0.2242879408623474  0.1504464512562301  0.6181002265348574
  0.3798405786109619  0.5602891187019643  0.7361867002571976
  0.7514412439487126  0.0927182457369074  0.2353000903946811
  0.4630303254249382  0.0979962992266622  0.2847723730245255
  0.1526047912221823  0.0038604772649169  0.7394428823600206
  0.5321808695714365  0.2838928446918365  0.9697109548737337
  0.9824959033040733  0.0289142707341762  0.5238250685326178
  0.1911889770585094  0.3650402087026982  0.6441662383814374
  0.4774086183422757  0.4994607097580065  0.3712085477427312
  0.2428208805342954  0.5484826045025281  0.1728412958900848
  0.8143452668629527  0.9033405362609432  0.2663503447196439
  0.0955248700640883  0.6366398679874615  0.4084249412873466
  0.6999524334794051  0.5967744501510688  0.7529948463112952
  0.7309051819581814  0.6780349014966673  0.0363914661534144
  0.9517504350338207  0.2583225460384150  0.3304669176640870
  0.5367081705256135  0.1839563107611983  0.5616764182373361
  0.6910930965455357  0.0443951880330831  0.8348441426227351
  0.2306843768590347  0.5264407291175798  0.8792453660158777
  0.8298461759917742  0.1233080497607171  0.0833948507669780
  0.4020702498199427  0.7415757460493361  0.6446929950451943
  0.2912038875705209  0.9089040291567312  0.0349888432868455
 
  0.00000000E+00  0.00000000E+00  0.00000000E+00
  0.00000000E+00  0.00000000E+00  0.00000000E+00
  0.00000000E+00  0.00000000E+00  0.00000000E+00
  0.00000000E+00  0.00000000E+00  0.00000000E+00
  0.00000000E+00  0.00000000E+00  0.00000000E+00
  0.00000000E+00  0.00000000E+00  0.00000000E+00
  0.00000000E+00  0.00000000E+00  0.00000000E+00
  0.00000000E+00  0.00000000E+00  0.00000000E+00
  0.00000000E+00  0.00000000E+00  0.00000000E+00
  0.00000000E+00  0.00000000E+00  0.00000000E+00
  0.00000000E+00  0.00000000E+00  0.00000000E+00
  0.00000000E+00  0.00000000E+00  0.00000000E+00
  0.00000000E+00  0.00000000E+00  0.00000000E+00
  0.00000000E+00  0.00000000E+00  0.00000000E+00
  0.00000000E+00  0.00000000E+00  0.00000000E+00
  0.00000000E+00  0.00000000E+00  0.00000000E+00
  0.00000000E+00  0.00000000E+00  0.00000000E+00
  0.00000000E+00  0.00000000E+00  0.00000000E+00
  0.00000000E+00  0.00000000E+00  0.00000000E+00
  0.00000000E+00  0.00000000E+00  0.00000000E+00
  0.00000000E+00  0.00000000E+00  0.00000000E+00
  0.00000000E+00  0.00000000E+00  0.00000000E+00
  0.00000000E+00  0.00000000E+00  0.00000000E+00
  0.00000000E+00  0.00000000E+00  0.00000000E+00
  0.00000000E+00  0.00000000E+00  0.00000000E+00
  0.00000000E+00  0.00000000E+00  0.00000000E+00
  0.00000000E+00  0.00000000E+00  0.00000000E+00
  0.00000000E+00  0.00000000E+00  0.00000000E+00
  0.00000000E+00  0.00000000E+00  0.00000000E+00
  0.00000000E+00  0.00000000E+00  0.00000000E+00
  0.00000000E+00  0.00000000E+00  0.00000000E+00
  0.00000000E+00  0.00000000E+00  0.00000000E+00
  0.00000000E+00  0.00000000E+00  0.00000000E+00
  0.00000000E+00  0.00000000E+00  0.00000000E+00
  0.00000000E+00  0.00000000E+00  0.00000000E+00
  0.00000000E+00  0.00000000E+00  0.00000000E+00
  0.00000000E+00  0.00000000E+00  0.00000000E+00
  0.00000000E+00  0.00000000E+00  0.00000000E+00
  0.00000000E+00  0.00000000E+00  0.00000000E+00
  0.00000000E+00  0.00000000E+00  0.00000000E+00
  0.00000000E+00  0.00000000E+00  0.00000000E+00
  0.00000000E+00  0.00000000E+00  0.00000000E+00
