Na10 Fe2 O9                             
   1.00000000000000     
     5.8300328321969559    0.0017820955689003   -0.0085131769092601
     0.0148338061270325    6.3755154091698554   -0.6660584266408286
    -0.0155789458482560   -0.0072935621715828    7.5630629743547546
   Na   Fe   O 
    10     2     9
Direct
  0.6878703594860753  0.4280956604526241  0.5470532991318112
  0.0145833002718476  0.7850887375690477  0.4546418998458423
  0.1764703975347248  0.9106330046692585  0.0451307129048126
  0.6919401394324729  0.7977633268800016  0.8907116179246476
  0.0419229445286465  0.1536623751641077  0.7340656347359392
  0.9877947074391596  0.4841612526302473  0.0274312216395918
  0.4983850944016108  0.9955292784340649  0.5389010084414718
  0.2111562146815921  0.2997901254721295  0.3907688568483279
  0.4981000014791375  0.6741718692088127  0.2236380925707838
  0.4909214386730398  0.2403997824623869  0.9376839183654896
  0.7628544875565978  0.0544493406770380  0.2225600244684286
  0.2722663622762058  0.6058750581739207  0.7236811146428569
  0.8690607291673225  0.1196432137016261  0.4459806288574604
  0.8611052994800635  0.1494078847790447  0.0178378643509914
  0.3614384272488162  0.6360180837834032  0.4837143757281276
  0.4653824416262635  0.0755983683183730  0.2308586738943641
  0.3384588408896758  0.8915123167340839  0.7764324044034884
  0.9718350765713699  0.6032025179889846  0.7182017239841678
  0.8553666853599199  0.7844336090526338  0.1798065548528631
  0.3621868162676925  0.3279953231898523  0.6716558854946894
  0.3486284432606644  0.5762595826632579  0.9629074919603913
 
  0.00000000E+00  0.00000000E+00  0.00000000E+00
  0.00000000E+00  0.00000000E+00  0.00000000E+00
  0.00000000E+00  0.00000000E+00  0.00000000E+00
  0.00000000E+00  0.00000000E+00  0.00000000E+00
  0.00000000E+00  0.00000000E+00  0.00000000E+00
  0.00000000E+00  0.00000000E+00  0.00000000E+00
  0.00000000E+00  0.00000000E+00  0.00000000E+00
  0.00000000E+00  0.00000000E+00  0.00000000E+00
  0.00000000E+00  0.00000000E+00  0.00000000E+00
  0.00000000E+00  0.00000000E+00  0.00000000E+00
  0.00000000E+00  0.00000000E+00  0.00000000E+00
  0.00000000E+00  0.00000000E+00  0.00000000E+00
  0.00000000E+00  0.00000000E+00  0.00000000E+00
  0.00000000E+00  0.00000000E+00  0.00000000E+00
  0.00000000E+00  0.00000000E+00  0.00000000E+00
  0.00000000E+00  0.00000000E+00  0.00000000E+00
  0.00000000E+00  0.00000000E+00  0.00000000E+00
  0.00000000E+00  0.00000000E+00  0.00000000E+00
  0.00000000E+00  0.00000000E+00  0.00000000E+00
  0.00000000E+00  0.00000000E+00  0.00000000E+00
  0.00000000E+00  0.00000000E+00  0.00000000E+00
