Na5 Ag1 As2
1.0
   5.0274367332458496    0.0000000000000000   -0.0167829599231477
  -0.0300430784096891    5.0197632125864242   -0.0177312735468154
   0.0000000000000000    0.0000000000000000    7.1623435020446777
Na Ag As
5 1 2
direct
   0.5475655794143677    0.7956681847572327    0.0760901197791100 Na
   0.0480476245284081    0.7961680889129639    0.3324307501316071 Na
   0.0476179607212543    0.2967633903026581    0.5783889889717102 Na
   0.0477241277694702    0.2965411543846130    0.0773139744997025 Na
   0.5484091639518738    0.2960128486156464    0.8223007321357727 Na
   0.5482884049415588    0.7960210442543031    0.5785288214683533 Ag
   0.5474724769592285    0.2953612208366394    0.3355412483215332 As
   0.0473131611943245    0.7978206276893616    0.8189150691032410 As
