Generated by VASPKIT code
 1.000000
    8.4081992558639236    0.0903967487957106    3.2172190292840566
    2.5865305265292005    6.7959958464537893    1.7063722847561025
    0.2356870082110007    0.1982419972781589   10.0212719950179743
   La   Nb   Zn   Si   P    S    O 
     1     1     1     2     5     1    26
Direct
    0.3632815013047053    0.3687886516717374    0.4266736174821409    La001
    0.8504980371283254    0.0408510628092431    0.4212942697210343    Nb001
    0.3601728723518694    0.0579531913911820    0.1372729774821679    Zn001
    0.6613362246710676    0.3492494191659041    0.7015624316099777    Si001
    0.0213079125428524    0.6729951202274637    0.9677772026812318    Si002
    0.3075094570544026    0.3558888184890704    0.8240450763509317     P001
    0.8784197599708076    0.5809570282015388    0.5300409659090722     P002
    0.2543902119047677    0.9192754064127675    0.4726229411206916     P003
    0.1842388925344688    0.7437831509048878    0.1617237071662720     P004
    0.7073334465874941    0.9963040155555536    0.9158785859241485     P005
    0.8331255769649055    0.3852415587895378    0.1346452967186521     S001
    0.8907655116352662    0.5748440396316623    0.0997011236472401     O001
    0.2678289854704398    0.9583428257936966    0.6092804511278299     O002
    0.7234009999372440    0.2069826303278575    0.8398321801038823     O003
    0.0070980469717432    0.8643980327582610    0.2599285862052055     O004
    0.6478810883169838    0.4688619395270019    0.1956231104010903     O005
    0.1467851398988734    0.7178330060837905    0.0241758888046774     O006
    0.9177311940494705    0.2573749194796948    0.2452051373497216     O007
    0.8408247841795061    0.7989396158956437    0.5517872851168972     O008
    0.1357221514093482    0.5436512383885699    0.8304291695824132     O009
    0.7316519458509166    0.5297565635592262    0.6752279563840428     O010
    0.3062999876450899    0.8569782712577775    0.0939173059508030     O011
    0.8374997608769569    0.5756816027026503    0.4009345773870531     O012
    0.3276940494522486    0.2373215641345334    0.7120292619576585     O013
    0.0519679263497580    0.4431382928367340    0.5509888600628113     O014
    0.4500478547088906    0.4563916032829883    0.7601804974374500     O015
    0.2597390094881523    0.5359971339289815    0.2334516306549599     O016
    0.6139637479787088    0.0084417443186214    0.0776560577174915     O017
    0.9021683448536274    0.2985357425638021    0.0007985818918835     O018
    0.2972227572332355    0.2630490026178637    0.9775439468703172     O019
    0.6507341489797485    0.0973046974410294    0.3855600560198481     O020
    0.3455530717967844    0.0500090912342758    0.3403030892171412     O021
    0.9073248938195568    0.8819583575651379    0.8985348051727342     O022
    0.7251599150495912    0.2323794435169766    0.5655881516836430     O023
    0.0650741170646208    0.9982209917671740    0.4714136474102848     O024
    0.3433134536911377    0.6974129200481317    0.4461076115713777     O025
    0.6413988234800835    0.9189690340254788    0.8363791390937118     O026
