K2 Na1 Cu1 Cl6
1.0
   6.2394566535949707    0.0000000000000000    3.5949521064758301
   2.0726774805966386    5.8867316187171372    3.6111795902252211
   0.0000000000000000    0.0000000000000000    7.2135624885559082
K Na Cu Cl
2 1 1 6
direct
   0.7329839468002319    0.7060889005661011    0.8703010678291322 K
   0.2324618101119995    0.2061707079410553    0.3702128827571869 K
   0.4830148220062256    0.4562384784221649    0.6205741167068481 Na
   0.9827965497970581    0.9561402797698975    0.1201563626527786 Cu
   0.7474141120910645    0.1905538141727447    0.8852383494377137 Cl
   0.2179400175809860    0.7210846543312073    0.3556409478187561 Cl
   0.7478817105293274    0.1905793100595474    0.3553550243377686 Cl
   0.2186045944690704    0.1915287673473358    0.8850726485252381 Cl
   0.2179544419050217    0.7211314439773560    0.8853655457496644 Cl
   0.7471100687980652    0.7206407189369202    0.3558668792247772 Cl
