Generated by VASPKIT code
 1.000000
    4.7607566297511923   -0.0089208248895435    2.7663713784831079
    1.5908142206592497    4.4897804231187957    2.7615195054623500
   -0.0112130724478859   -0.0024107929100904    5.5033472430022856
   Sb   W    O 
     1     1     6
Direct
    0.7456612749761032    0.3864718196638333    0.0665900345955284    Sb001
    0.2456756965189128    0.8865035554388414    0.5664674902107487     W001
    0.9996426659923247    0.1323526561993877    0.8130626290351168     O001
    0.4916348636239617    0.1327716324414224    0.3204303772561974     O002
    0.4918436038294423    0.6405861735606754    0.3201705745161256     O003
    0.4918108920846948    0.6401562618261869    0.8127099955268747     O004
    0.9995418857997203    0.6404774660078781    0.8129541101122673     O005
    0.9995675309590398    0.1330554394043171    0.3204159664781891     O006
