Na6 Tl1 V1 B1 C1 S2 O15                 
   1.00000000000000     
     5.4693615327813188    0.0041435118549846   -0.0916566951256451
     0.0115014826215684    7.1529555051260720   -0.0117029670565623
     0.0687672432697481    0.0059381612681000    9.5505458164380528
   Na   Tl   V    B    C    S    O 
     6     1     1     1     1     2    15
Direct
  0.8893876779876564  0.8521944569000791  0.3659529309064409
  0.8868235244301638  0.3289873748239659  0.3631863549818710
  0.3720609179845442  0.5866518380430744  0.5080417524504016
  0.3828550171041564  0.0890058035305969  0.2583967024762090
  0.3899835275198966  0.3228929189767250  0.8801872105133381
  0.3895593709469418  0.8568599010244888  0.8779615861393155
  0.9044232828382416  0.0911549217752081  0.7029958621181643
  0.8864666855224759  0.6049909075967107  0.0222545277397159
  0.3104336775486201  0.5898405909448307  0.2425966837523004
  0.4120160066174782  0.0905684660028657  0.5499659998127794
  0.9188167159801860  0.0889817646060810  0.0533347462955836
  0.9334126422888632  0.5900465680286178  0.6914429597551809
  0.2009507553360107  0.5911985356379849  0.0289473503189489
  0.1857104948637178  0.0882970631026911  0.0232452676245777
  0.2030232489468566  0.0911297276750578  0.4831154081702456
  0.3015966367971561  0.7624731587899917  0.2848412515788664
  0.8001048377678190  0.2585471170080564  0.9909061989915205
  0.4161290644227501  0.0890629336240465  0.6864052629672757
  0.3030458099579612  0.4156934471161363  0.2837945634669218
  0.0979290863824505  0.4252358528809054  0.6995232310884669
  0.8044229890715161  0.9108203057541689  0.9916222586485306
  0.7488653664071931  0.5907435685768876  0.8143997324696175
  0.6154517920185584  0.0901178622610059  0.4783538011964794
  0.0935174427937441  0.7562911756480530  0.6975906446526906
  0.7920264554040202  0.5880815478703567  0.5567522575752810
  0.7386466101926540  0.5891863254144761  0.1726052993285633
  0.8799514453626273  0.0874317475963111  0.2056337785452559
 
  0.00000000E+00  0.00000000E+00  0.00000000E+00
  0.00000000E+00  0.00000000E+00  0.00000000E+00
  0.00000000E+00  0.00000000E+00  0.00000000E+00
  0.00000000E+00  0.00000000E+00  0.00000000E+00
  0.00000000E+00  0.00000000E+00  0.00000000E+00
  0.00000000E+00  0.00000000E+00  0.00000000E+00
  0.00000000E+00  0.00000000E+00  0.00000000E+00
  0.00000000E+00  0.00000000E+00  0.00000000E+00
  0.00000000E+00  0.00000000E+00  0.00000000E+00
  0.00000000E+00  0.00000000E+00  0.00000000E+00
  0.00000000E+00  0.00000000E+00  0.00000000E+00
  0.00000000E+00  0.00000000E+00  0.00000000E+00
  0.00000000E+00  0.00000000E+00  0.00000000E+00
  0.00000000E+00  0.00000000E+00  0.00000000E+00
  0.00000000E+00  0.00000000E+00  0.00000000E+00
  0.00000000E+00  0.00000000E+00  0.00000000E+00
  0.00000000E+00  0.00000000E+00  0.00000000E+00
  0.00000000E+00  0.00000000E+00  0.00000000E+00
  0.00000000E+00  0.00000000E+00  0.00000000E+00
  0.00000000E+00  0.00000000E+00  0.00000000E+00
  0.00000000E+00  0.00000000E+00  0.00000000E+00
  0.00000000E+00  0.00000000E+00  0.00000000E+00
  0.00000000E+00  0.00000000E+00  0.00000000E+00
  0.00000000E+00  0.00000000E+00  0.00000000E+00
  0.00000000E+00  0.00000000E+00  0.00000000E+00
  0.00000000E+00  0.00000000E+00  0.00000000E+00
  0.00000000E+00  0.00000000E+00  0.00000000E+00
