Na24 Ta1 Ga3 Sn1 As11
1.0
   9.2062978744506836    0.0000000000000000   -1.2758860588073735
  -2.9182870758390318    8.7123238477152150   -3.0859079360961919
   0.0000000000000000    0.0000000000000000   12.3460206985473633
Na Ta Ga Sn As
24 1 3 1 11
direct
   0.6123927831649780    0.1493095606565475    0.2648322582244873 Na
   0.1223328039050102    0.5384534597396851    0.3353058397769928 Na
   0.9939041733741760    0.1704430282115936    0.2677201330661774 Na
   0.3869301974773407    0.8678676486015320    0.0791017860174179 Na
   0.4593530595302582    0.4599789977073669    0.7018169760704041 Na
   0.3831092119216919    0.3224412798881531    0.4037887752056122 Na
   0.7769899964332581    0.0106592765077949    0.0099948141723871 Na
   0.4977517127990723    0.1370438635349274    0.9950365424156189 Na
   0.2197659015655518    0.5204322934150696    0.9077720046043396 Na
   0.8453918099403381    0.4738113582134246    0.4503226280212402 Na
   0.0127021158114076    0.8034461736679077    0.0763757154345512 Na
   0.1422882974147797    0.0004526829579845    0.8881855607032776 Na
   0.8928461670875549    0.0336325280368328    0.4555926620960236 Na
   0.1233518496155738    0.6603679060935973    0.7070583701133728 Na
   0.8354989886283875    0.3341029882431030    0.6638740301132202 Na
   0.1378931999206543    0.1702710092067719    0.6852201819419861 Na
   0.8440530896186829    0.6712343692779541    0.2950415611267090 Na
   0.3501973450183868    0.6876822710037231    0.5669094920158386 Na
   0.4757306575775146    0.4362481236457825    0.1565080583095551 Na
   0.7552855014801025    0.3688971996307373    0.9303219914436340 Na
   0.2350385934114456    0.9479525685310364    0.3589752316474915 Na
   0.0829834267497063    0.3138231635093689    0.0627121701836586 Na
   0.4158001542091370    0.0462170913815498    0.6998959183692932 Na
   0.5991950035095215    0.6439335346221924    0.9731151461601257 Na
   0.5362857580184937    0.8173280358314514    0.3238570392131805 Ta
   0.6619338393211365    0.9590867757797241    0.5924177169799805 Ga
   0.8803444504737854    0.8060765862464905    0.6346576213836670 Ga
   0.6690002083778381    0.8145020604133606    0.7640322446823120 Ga
   0.1198890432715416    0.3627398014068604    0.5311191082000732 Sn
   0.2758939266204834    0.6583998203277588    0.1856594681739807 As
   0.5561355352401733    0.0948648080229759    0.4758691489696503 As
   0.0875249207019806    0.8304926156997680    0.5322663187980652 As
   0.8060497045516968    0.3436857163906097    0.1666774898767471 As
   0.4392099678516388    0.8080903887748718    0.8426216840744019 As
   0.8511654734611511    0.6739597320556641    0.8029248714447021 As
   0.4126128554344177    0.3242572844028473    0.8794362545013428 As
   0.6143143177032471    0.6768232583999633    0.4766230285167694 As
   0.7310571670532227    0.8647264838218689    0.2041842937469482 As
   0.8517816662788391    0.0847511291503906    0.7835593819618225 As
   0.2553583085536957    0.1241684257984161    0.1527326852083206 As
