Na5 In1 Ag1 Se5
1.0
   4.1559443473815909    0.0000000000000000   -0.7685410380363463
  -1.4261700113520435    7.3335903986952244    3.7803730964660649
   0.0000000000000000    0.0000000000000000   11.3505811691284180
Na In Ag Se
5 1 1 5
direct
   0.6264092922210693    0.6050494313240051    0.6315332651138306 Na
   0.7719551920890808    0.5067566633224487    0.0277539826929569 Na
   0.3585068285465240    0.9265708923339844    0.7867434620857239 Na
   0.2150667309761047    0.0002156808041036    0.4192393422126770 Na
   0.4845750927925110    0.7641717791557313    0.2036591172218323 Na
   0.8846135735511780    0.3557921350002289    0.4065917730331421 In
   0.0709507912397385    0.2049055397510529    0.9254108667373657 Ag
   0.9402446150779724    0.8874537944793701    0.9935692548751831 Se
   0.0437239073216915    0.6561912894248962    0.4254170954227448 Se
   0.8080089092254639    0.0261342562735081    0.5838985443115234 Se
   0.3142784535884857    0.3720042109489441    0.2488068044185638 Se
   0.1911109983921051    0.5296080112457275    0.8372982740402222 Se
