K1 Na1 V1 F6
1.0
   5.1437706947326651    0.0000000000000000    2.9441111087799068
   1.6902139845294086    4.8465400686181566    2.9546003341674796
   0.0000000000000000    0.0000000000000000    5.9350657463073730
K Na V F
1 1 1 6
direct
   0.2498511672019958    0.1235432699322701    0.3061686158180237 K
   0.5009289383888245    0.3737418651580811    0.5557484626770021 Na
   0.0005121231079102    0.8738036751747131    0.0553331673145294 V
   0.7706173062324524    0.6430445909500123    0.2871827781200409 F
   0.2314216047525406    0.1035091727972031    0.8254981637001039 F
   0.7704476118087769    0.1039123311638832    0.8250006437301637 F
   0.2305706143379211    0.6433898210525513    0.8251383900642396 F
   0.7708250284194946    0.1045459061861038    0.2848923802375793 F
   0.2311796844005585    0.6431343555450439    0.2857532501220703 F
