Na3 Zr1 Sn2 F13                         
   1.00000000000000     
     5.9723539316479242   -0.0505628570401172    0.2194039490557242
     1.9875185508519593    5.8207423639524070    0.1944208840193400
     0.0624038868677887   -0.0290251587968940    9.3383670035472885
   Na   Zr   Sn   F 
     3     1     2    13
Direct
  0.4717073729162806  0.3297855509469221  0.1913205215620711
  0.0915512087816407  0.8595490292863940  0.9447389989793522
  0.4166565833110199  0.1794513405002560  0.8589040605945406
  0.7537758484674929  0.5245460349704465  0.7832570599198395
  0.9312287130138039  0.6851771314819733  0.3464277561514977
  0.3429985375093712  0.0575315137076548  0.5464704170290221
  0.6804633227641009  0.9902479135491205  0.3097975848387571
  0.0330723178828219  0.1948220671236753  0.7044707045894236
  0.0823101506593565  0.4977902156002655  0.8542639824767144
  0.1336555050461330  0.8666166310355217  0.4312344563683852
  0.3992313164748395  0.7675821847058126  0.7620458748554821
  0.7375586578218919  0.8443112536447275  0.8628021619351817
  0.1031674299074597  0.6610512599287383  0.1615616203958986
  0.2016583158219549  0.3761187464027623  0.4002884464492860
  0.8142030329620910  0.6660246038349169  0.5678629858493587
  0.2708855921600207  0.0873541515552837  0.0785935827998830
  0.6556684798448953  0.3766789276789633  0.9574406502187168
  0.7112885529464303  0.5135108562242503  0.2961950018261245
  0.5719631439327643  0.3339412007702560  0.6616387828615841
 
  0.00000000E+00  0.00000000E+00  0.00000000E+00
  0.00000000E+00  0.00000000E+00  0.00000000E+00
  0.00000000E+00  0.00000000E+00  0.00000000E+00
  0.00000000E+00  0.00000000E+00  0.00000000E+00
  0.00000000E+00  0.00000000E+00  0.00000000E+00
  0.00000000E+00  0.00000000E+00  0.00000000E+00
  0.00000000E+00  0.00000000E+00  0.00000000E+00
  0.00000000E+00  0.00000000E+00  0.00000000E+00
  0.00000000E+00  0.00000000E+00  0.00000000E+00
  0.00000000E+00  0.00000000E+00  0.00000000E+00
  0.00000000E+00  0.00000000E+00  0.00000000E+00
  0.00000000E+00  0.00000000E+00  0.00000000E+00
  0.00000000E+00  0.00000000E+00  0.00000000E+00
  0.00000000E+00  0.00000000E+00  0.00000000E+00
  0.00000000E+00  0.00000000E+00  0.00000000E+00
  0.00000000E+00  0.00000000E+00  0.00000000E+00
  0.00000000E+00  0.00000000E+00  0.00000000E+00
  0.00000000E+00  0.00000000E+00  0.00000000E+00
  0.00000000E+00  0.00000000E+00  0.00000000E+00
