Na3 V1 F5
1.0
   4.0400071144104013    0.0000000000000000   -1.6266714334487913
  -1.3860761722967256    5.2097180961401302   -3.4624974727630620
   0.0000000000000000    0.0000000000000000    5.7886161804199219
Na V F
3 1 5
direct
   0.3736100196838379    0.0879760086536407    0.1667893528938293 Na
   0.6447325348854065    0.8070771694183348    0.7105797529220581 Na
   0.1019136905670166    0.3689823746681213    0.6233416795730591 Na
   0.8729420304298401    0.5878282785415648    0.1668798476457595 V
   0.3729201555252075    0.5889849066734314    0.1663429290056229 F
   0.8443059325218201    0.2501786649227142    0.1087141185998917 F
   0.1111919209361076    0.7632741332054138    0.6431322693824768 F
   0.9023512601852417    0.9258320927619933    0.2255494892597198 F
   0.6336796283721924    0.4125791788101196    0.6889940500259399 F
