Na3 Cu3 F9
1.0
   5.2317671775817871    0.0000000000000000    0.9312597513198858
   2.4935744671374493    5.6009446827227203    1.8695800304412824
   0.0000000000000000    0.0000000000000000    6.4281706809997559
Na Cu F
3 3 9
direct
   0.9923298358917237    0.7338330149650574    0.2701795697212219 Na
   0.3152209222316742    0.5676149129867554    0.7818853259086609 Na
   0.3248708546161652    0.0626284703612328    0.2846720218658447 Na
   0.6508264541625977    0.8964812755584717    0.7786626815795898 Cu
   0.6510239839553834    0.4017429947853088    0.2847115695476532 Cu
   0.9690294861793519    0.2450965940952301    0.7829052209854126 Cu
   0.3783250153064728    0.6454139947891235    0.4266035556793213 F
   0.6524599790573121    0.8024836182594299    0.0758487135171890 F
   0.9349800348281861    0.1854047477245331    0.1056539043784142 F
   0.1275991797447205    0.9290014505386353    0.7946833372116089 F
   0.3603227138519287    0.4357259571552277    0.1392675042152405 F
   0.8281613588333130    0.5720907449722290    0.7665151357650757 F
   0.6774736046791077    0.9759765863418579    0.4781291484832764 F
   0.9435113072395326    0.3301699161529541    0.4629562795162201 F
   0.4639379978179932    0.2017284333705902    0.7889638543128967 F
