Generated by VASPKIT code
 1.000000
    5.3713369369506836    0.0000000000000000    1.0251259803771975
    1.6633373404180389    5.0962058988500560   -0.9699697494506837
    0.0000000000000000    0.0000000000000000    6.2884778976440430
   B    O 
     2     6
Direct
    0.0855464339256286    0.1675519198179245    0.7649134993553162     B001
    0.6189710497856140    0.6993743777275085    0.2655374705791473     B002
    0.1036157831549644    0.3641396760940552    0.6491088271141052     O001
    0.6790051460266113    0.5278076529502869    0.4035060703754425     O002
    0.7559223771095275    0.8796724081039430    0.2352498620748520     O003
    0.2581299245357513    0.1055595129728317    0.9023432135581970     O004
    0.9033313393592834    0.0299554523080587    0.7371188402175903     O005
    0.4200595021247864    0.6830527186393738    0.1502514779567719     O006
