Na3 Au3 O6                              
   1.00000000000000     
     5.6388576340509413   -0.1435257445334516   -2.3843886806152512
     0.2788295942613509    5.5069392305551492   -1.0427758009286230
    -0.0208508097510942    0.2536684203094213    5.4205480425549633
   Na   Au   O 
     3     3     6
Direct
  0.7343330063596805  0.7036369315703458  0.1951110977396037
  0.3782462080445146  0.2135303713509808  0.0358872120522737
  0.0901984164601360  0.1935068468496460  0.3546601852091463
  0.0616075416796235  0.6991576904066900  0.8369993475149119
  0.4075737508558402  0.7075080018086408  0.5539617690821819
  0.7344612847812395  0.2032288515067998  0.6949993765839325
  0.1835272019629131  0.9354429858749599  0.6769542912718216
  0.5076593090423475  0.9713592886696427  0.4027884541580323
  0.8557917888628048  0.9532530440446807  0.9616139915595764
  0.9611816666143299  0.4350017694035297 -0.0125604852934285
  0.2855825889561187  0.4712234199688667  0.7139865225183021
  0.6126424643157656  0.4532596342423912  0.4283650068340121
 
  0.00000000E+00  0.00000000E+00  0.00000000E+00
  0.00000000E+00  0.00000000E+00  0.00000000E+00
  0.00000000E+00  0.00000000E+00  0.00000000E+00
  0.00000000E+00  0.00000000E+00  0.00000000E+00
  0.00000000E+00  0.00000000E+00  0.00000000E+00
  0.00000000E+00  0.00000000E+00  0.00000000E+00
  0.00000000E+00  0.00000000E+00  0.00000000E+00
  0.00000000E+00  0.00000000E+00  0.00000000E+00
  0.00000000E+00  0.00000000E+00  0.00000000E+00
  0.00000000E+00  0.00000000E+00  0.00000000E+00
  0.00000000E+00  0.00000000E+00  0.00000000E+00
  0.00000000E+00  0.00000000E+00  0.00000000E+00
