Generated by VASPKIT code
 1.000000
    5.7178075567613549   -0.0046892095633565    1.2474036573689833
    0.2131661792641086    3.2079786899247553   -0.9557439836507970
    0.0266401071470478    0.0001544526329705    5.8737964429691347
   Bi   O 
     1     4
Direct
    0.7616839158887384    0.2594986461077095    0.5930885297218035    Bi001
    0.0937021782497996    0.1448891352454817    0.3646873670914700     O001
    0.6567669000308469    0.6513335065573777    0.3757230814682948     O002
    0.8666666388752678    0.8673042289941066    0.8103743002669789     O003
    0.4296631507040603    0.3737593498385519    0.8214614565156152     O004
