Cs4 Na1 V3 O10
1.0
   6.1606135368347159    0.0000000000000000    0.1611856818199150
   0.1037850861317086    7.0758189509124731    3.0740451812744136
   0.0000000000000000    0.0000000000000000    8.0493230819702148
Cs Na V O
4 1 3 10
direct
   0.9290886521339418    0.5067420005798339    0.8977749943733215 Cs
   0.4202247858047486    0.2537677586078643    0.6311262249946594 Cs
   0.9266577959060670    0.0407873876392841    0.3900180160999298 Cs
   0.4220368862152100    0.7296441197395324    0.1533936858177186 Cs
   0.9278161525726319    0.9947105050086975    0.8893977403640747 Na
   0.9172428250312806    0.5593634247779846    0.4485617280006409 V
   0.4313971996307374    0.7397551536560057    0.6901615858078003 V
   0.4249113202095032    0.2453972995281219    0.0649758428335190 V
   0.9160740375518800    0.6381298303604125    0.2105825394392014 O
   0.6651094555854797    0.6516589522361754    0.5190858840942383 O
   0.4251059591770173    0.4974357783794403    0.8836190700531006 O
   0.2149775028228760    0.8622231483459473    0.7351675033569336 O
   0.1605800986289978    0.6451417207717896    0.5146641731262207 O
   0.9165638089179994    0.3129003047943115    0.5672295093536377 O
   0.1971957534551621    0.1318157166242599    0.0265447646379471 O
   0.4211909472942353    0.2531487345695496    0.2741072475910187 O
   0.6556807756423950    0.1311384588479996    0.0298780109733343 O
   0.6439083814620972    0.8626889586448668    0.7430579066276550 O
