Na2 Au2
1.0
   4.8477425575256348    0.0000000000000000    0.0124945044517520
  -2.4864349410653399    4.1807125873815547   -0.0087201744318007
   0.0000000000000000    0.0000000000000000    5.1128916740417480
Na Au
2 2
direct
   0.3970721065998077    0.4197922348976135    0.9635586738586426 Na
   0.7331374883651733    0.0860328301787376    0.4657265543937683 Na
   0.0660086870193481    0.7516047954559326    0.2144851386547089 Au
   0.0642824470996857    0.7545200586318970    0.7146980166435242 Au
