Na4 Zn5 Si4 O15
1.0
   5.1531991958618164    0.0000000000000000    0.8487482666969300
   0.1401231356130724    6.8738652043143400   -1.7185684442520144
   0.0000000000000000    0.0000000000000000   10.7133684158325195
Na Zn Si O
4 5 4 15
direct
   0.8073324561119080    0.8276086449623108    0.1309862732887268 Na
   0.1811571419239044    0.7090303301811218    0.6156765818595886 Na
   0.5321868062019348    0.2921400070190430    0.8838304281234741 Na
   0.7812430858612061    0.6712032556533813    0.4093796014785767 Na
   0.8463998436927795    0.1624821424484253    0.3835909664630890 Zn
   0.2629967629909515    0.5761515498161316    0.2113130092620850 Zn
   0.5736892223358154    0.8284242153167725    0.8385908007621765 Zn
   0.1732517331838608    0.2204147577285767    0.6335517764091492 Zn
   0.2952159643173218    0.0974357277154922    0.1250385344028473 Zn
   0.3493914604187012    0.9181303977966309    0.3593648970127106 Si
   0.0348555557429790    0.0361381135880947    0.8841167092323303 Si
   0.6763527393341064    0.4560101330280304    0.6333872079849243 Si
   0.8077132701873779    0.3312132060527802    0.1267615109682083 Si
   0.8537123799324036    0.8680281043052673    0.9254119396209717 O
   0.7054145336151123    0.4083292782306671    0.4769782423973083 O
   0.4931274652481079    0.3013810515403748    0.6881569027900696 O
   0.5641926527023315    0.6764233708381653    0.6781734228134155 O
   0.0640021413564682    0.0233207084238529    0.7322407960891723 O
   0.4931436479091644    0.3425970375537872    0.1454106718301773 O
   0.9170635342597961    0.5399103164672852    0.1753561347723007 O
   0.3122012913227081    0.0211658645421267    0.9315661191940308 O
   0.9241700768470764    0.1697118133306503    0.1920023858547211 O
   0.3466267883777618    0.8693380355834961    0.1998661309480667 O
   0.1703379899263382    0.1046900227665901    0.4398550689220428 O
   0.9042864441871643    0.2504096031188965    0.9666029810905457 O
   0.6402021050453186    0.9430450201034546    0.3789908885955811 O
   0.2332195192575455    0.7231655120849609    0.3962186276912689 O
   0.9549153447151184    0.4500450789928436    0.6764910221099854 O
