Na2 V1 H1 Se2 O8
1.0
   4.8789033889770508    0.0000000000000000   -0.6855942606925959
   2.9514488840725330    7.2471222171901681    0.3060380816459649
   0.0000000000000000    0.0000000000000000    5.7916431427001953
Na V H Se O
2 1 1 2 8
direct
   0.1515343934297562    0.4609439074993134    0.7852086424827576 Na
   0.5990374088287354    0.9131090044975281    0.8440780043601990 Na
   0.3524621129035950    0.1851230263710022    0.2958628237247467 V
   0.7476822137832640    0.2130303978919983    0.6997779011726379 H
   0.0759860128164291    0.8502767682075500    0.3982433974742889 Se
   0.6658905148506163    0.5243881344795227    0.2402725517749786 Se
   0.4718784093856812    0.3856269717216492    0.1582982540130615 O
   0.1703286916017532    0.1706863641738892    0.0261916723102331 O
   0.2640719115734101    0.9963255524635315    0.4843896031379700 O
   0.7298736572265625    0.6008556485176086    0.9879734516143799 O
   0.7385259270668030    0.9910829067230225    0.2426105290651321 O
   0.5611280202865601    0.2108139991760254    0.6326355934143066 O
   0.9975711703300476    0.3794236183166504    0.4011141359806061 O
   0.0170189812779427    0.7727769613265991    0.6515520811080933 O
