Generated by VASPKIT code
 1.000000
    6.4658552180067481    0.0451144085687551   -0.7776257800449886
   -1.1497416938522402    7.1368416608014291   -0.4233776100415744
    0.0104430856804560   -0.0728883583636558   10.0772411542678597
   Zn   Sn   O 
     1     1    11
Direct
    0.3305856980097943    0.4106744827868598    0.0722379990471213    Zn001
    0.0986205738738941    0.8724403540249309    0.5786504744978352    Sn001
    0.4254482570863141    0.8952905095584567    0.6135689114886719     O001
    0.4632431297724742    0.6194938787011163    0.2253431834275402     O002
    0.7870994513514282    0.9310435289568681    0.0007027690328167     O003
    0.0334666059153854    0.1199906966436896    0.6901439400186568     O004
    0.0029552664625644    0.0179146393788260    0.4047492322890250     O005
    0.0272616317346503    0.6162784389568512    0.4490207219037001     O006
    0.5019929902939816    0.3304425730321216    0.5048659412365413     O007
    0.4499412944052313    0.4330622411366775    0.8977510967881509     O008
    0.0084148464755890    0.4050580229477899    0.0526160416305258     O009
    0.3766424907113957    0.1512147557625601    0.1363786618753121     O010
    0.0227067796028367    0.7185598241018101    0.7454042981457127     O011
