Generated by VASPKIT code
 1.000000
    3.3045916709237444    0.0165472866342087   -0.9448937021211676
   -0.7839677745258040    5.0202254152200601   -2.5540331340612323
    0.0203442293433701   -0.0009755549871755    6.3459241771473183
   Pd   F 
     1     4
Direct
    0.5068780993164147    0.5115064740713448    0.5263421712127888    Pd001
    0.6417359628834136    0.8872070492315498    0.7952714398346733     F001
    0.3742110436835570    0.1359018567476012    0.2573227897102287     F002
    0.6431709315450097    0.4029887796427595    0.7933549210122688     F003
    0.3701397280945125    0.6196286192842095    0.2589770501744398     F004
