Na11 Ga7 Ge1 Se18
1.0
   8.3372707366943342    0.0000000000000000    0.5996963977813703
   0.1887528994053367    7.3990467791851122   -0.0040016546845438
   0.0000000000000000    0.0000000000000000   16.3522510528564453
Na Ga Ge Se
11 7 1 18
direct
   0.0342495143413544    0.0421341732144356    0.7943149805068970 Na
   0.9313707351684570    0.2679947912693024    0.1751940995454788 Na
   0.6099036335945129    0.7316882610321045    0.4492229819297791 Na
   0.0879410803318024    0.5344768762588501    0.9371536374092102 Na
   0.9241527915000916    0.6047793030738831    0.6763343811035156 Na
   0.6664507389068604    0.8462619781494141    0.9647446274757385 Na
   0.5081528425216675    0.2835834920406342    0.3295649588108063 Na
   0.3744376897811890    0.3235402703285217    0.7014344334602356 Na
   0.7595633268356323    0.2062725722789764    0.5976559519767761 Na
   0.2625968456268311    0.7915430665016174    0.5891675353050232 Na
   0.3889682888984680    0.8265970349311829    0.2163110375404358 Na
   0.5202124118804932    0.7316822409629822    0.7577394843101501 Ga
   0.5015791058540344    0.4141683578491211    0.0838373601436615 Ga
   0.0258098617196083    0.5716314911842346    0.3996571898460389 Ga
   0.9257286190986633    0.0562296323478222    0.3906069993972778 Ga
   0.8717929124832153    0.7446806430816650    0.1921178549528122 Ga
   0.2369078844785691    0.9822534918785094    0.0285464506596327 Ga
   0.5683207511901855    0.2489358931779861    0.8796684741973877 Ga
   0.2531752884387970    0.2258959263563156    0.5003120899200439 Ge
   0.2652818858623505    0.1890353262424469    0.9048242568969727 Se
   0.6709928512573242    0.0264261979609728    0.7706742286682129 Se
   0.7066771984100342    0.5421578884124756    0.8369916081428528 Se
   0.7433094382286072    0.9880604743957520    0.2789099514484406 Se
   0.6359832286834717    0.5271928906440735    0.2026876062154770 Se
   0.5885684490203857    0.5928800702095032    0.6245076656341553 Se
   0.7190964818000793    0.2587634027004242    0.0038821515627205 Se
   0.9238515496253967    0.8243721723556519    0.4928487241268158 Se
   0.3742935061454773    0.6866087913513184    0.0226145796477795 Se
   0.2147507071495056    0.0618699714541435    0.3676885068416595 Se
   0.3044477701187134    0.5249797701835632    0.4460129141807556 Se
   0.4891239106655121    0.0698244273662567    0.5364394783973694 Se
   0.8152842521667480    0.3661017417907715    0.4270350039005280 Se
   0.0861979424953461    0.2394075691699981    0.6290537118911743 Se
   0.9558771252632141    0.8447608947753906    0.0498860403895378 Se
   0.0941024646162987    0.6025319695472717    0.2516083717346191 Se
   0.2933342754840851    0.1785289496183395    0.1461654454469681 Se
   0.2186961024999619    0.7002310156822205    0.7721548676490784 Se
