Na1 In1 Ga1 As1 H2 O7
1.0
   4.9001650810241708    0.0000000000000000    1.0810027122497552
  -2.4855585123723909    5.0233081759752185    0.1330269575119016
   0.0000000000000000    0.0000000000000000    6.7916402816772461
Na In Ga As H O
1 1 1 1 2 7
direct
   0.4228623807430267    0.4911615550518036    0.5581521391868591 Na
   0.4215652346611023    0.4903299808502198    0.0687328949570656 In
   0.1226595789194108    0.8943666815757753    0.7912027239799498 Ga
   0.6998913288116455    0.0832787230610847    0.3212286829948425 As
   0.0773729085922241    0.7628278732299805    0.1341019123792648 H
   0.9131452441215515    0.2109652608633041    0.9055311083793639 H
   0.1259616166353226    0.2173313200473785    0.8724119663238524 O
   0.4332908689975739    0.0013193838531151    0.5596818923950195 O
   0.6131500601768494    0.2309859395027161    0.1401284784078598 O
   0.0592252723872662    0.3040489554405212    0.3525150120258331 O
   0.7003186941146851    0.7836970090866089    0.2509970664978027 O
   0.7508246898651123    0.6552066206932068    0.7795222997665404 O
   0.2128060311079025    0.7497137188911438    0.0059572206810117 O
