Na15 Cd1 As8 Pd2
1.0
   7.7725796699523926    0.0000000000000000    0.5275590419769292
   0.5733741091150645    8.6636310938053178   -1.3541435003280646
   0.0000000000000000    0.0000000000000000    9.4454450607299805
Na Cd As Pd
15 1 8 2
direct
   0.4853703081607819    0.8205778598785402    0.8040798902511597 Na
   0.0508935712277889    0.2771371901035309    0.5809821486473083 Na
   0.9171467423439027    0.5192732810974122    0.3218469321727753 Na
   0.3853068053722382    0.2735795378684998    0.3249380588531494 Na
   0.5659075975418091    0.7011199593544006    0.4138581156730652 Na
   0.5407342314720154    0.4999034106731415    0.0348024740815163 Na
   0.3959832489490510    0.2133103609085083    0.7983127832412720 Na
   0.9946780800819399    0.8914704322814941    0.3642689585685730 Na
   0.6168008446693422    0.4410038888454437    0.6117742657661438 Na
   0.6820310354232789    0.0496301017701626    0.5757073760032654 Na
   0.0809758231043816    0.3824479579925537    0.0156022710725665 Na
   0.4248192012310029    0.8972312211990356    0.2378347814083099 Na
   0.6942260861396791    0.0840043351054192    0.0622781664133072 Na
   0.0258752889931202    0.9915836453437805    0.7979681491851807 Na
   0.1463855952024460    0.7583320140838623    0.0401960648596287 Na
   0.8891425132751466    0.5851097106933594    0.8294928669929504 Cd
   0.2659592032432556    0.5864855647087097    0.2810896635055542 As
   0.2619979381561279    0.5369350314140320    0.7635457515716553 As
   0.7824852466583253    0.2239948362112045    0.3497616946697235 As
   0.8366469144821168    0.7365293502807617    0.6071130633354187 As
   0.7746396660804750    0.7393808364868165    0.1011585816740990 As
   0.7786221504211427    0.2795793116092682    0.8306772708892822 As
   0.3054107129573823    0.9733670949935914    0.5587703585624695 As
   0.2828754484653473    0.0762173309922218    0.0427786298096180 As
   0.1831338703632355    0.6884751915931702    0.5568610429763794 Pd
   0.0435219146311283    0.1467359513044357    0.2019975930452347 Pd
