Na3 Au1 O2
1.0
   4.2487788200378418    0.0000000000000000   -2.0142016410827641
  -0.9734955222139516    4.1227296569428118   -2.0093541145324711
   0.0000000000000000    0.0000000000000000    5.4988012313842773
Na Au O
3 1 2
direct
   0.7674902081489563    0.5934780240058899    0.8659911155700684 Na
   0.2676815986633301    0.0928077250719070    0.8654751181602478 Na
   0.5173780918121338    0.8428979516029358    0.3656415343284607 Na
   0.0171240065246820    0.3426455259323120    0.3660284578800201 Au
   0.7895553708076477    0.1142587736248970    0.9086492061614990 O
   0.2458653301000595    0.5707030892372131    0.8223969340324402 O
