Na1 Nd1 Ta2 O7
1.0
   3.8278713226318359    0.0000000000000000    0.6844871044158932
   0.1163014032463205    3.8267252629496418   -0.6976892948150646
   0.0000000000000000    0.0000000000000000   11.1275939941406250
Na Nd Ta O
1 1 2 7
direct
   0.8313050270080566    0.5860759019851683    0.0150955133140087 Na
   0.0784063637256622    0.8365203142166137    0.5149334669113159 Nd
   0.4781244993209838    0.4389523267745972    0.7213475704193115 Ta
   0.6799418330192566    0.2347612529993057    0.3083226680755615 Ta
   0.5789211392402649    0.3365885615348815    0.5150794982910156 O
   0.4979486167430877    0.9195539951324462    0.6823010444641113 O
   0.6606590747833252    0.7534095644950866    0.3473200201988220 O
   0.3943687677383423    0.5228025913238525    0.8904252648353577 O
   0.9973416924476622    0.4191162586212158    0.6826988458633423 O
   0.1603395342826843    0.2555323541164398    0.3482969105243683 O
   0.7650682330131531    0.1487213969230652    0.1394948661327362 O
