Na5 Hf1 Zr2 Si3 Sn1 P3 O23
1.0
   7.8989419937133789    0.0000000000000000    4.5559396743774414
   2.6829051252528888    7.3991085092573625    4.5008001327514648
   0.0000000000000000    0.0000000000000000    9.2198524475097656
Na Hf Zr Si Sn P O
5 1 2 3 1 3 23
direct
   0.1878854483366012    0.5768238306045533    0.1789318472146987 Na
   0.4095882177352905    0.1810979545116425    0.4429110884666443 Na
   0.6708722114562988    0.0515709370374680    0.6767539381980896 Na
   0.9155384302139283    0.9649308323860170    0.9268918037414549 Na
   0.7792076468467712    0.4654321074485779    0.4244502484798431 Na
   0.8271191716194153    0.2164349555969238    0.2463686764240265 Hf
   0.5105900168418884    0.9290587306022645    0.1236960291862487 Zr
   0.0183485429733992    0.4400802552700043    0.6193001866340637 Zr
   0.1180300340056419    0.1085996329784393    0.4473261237144470 Si
   0.4201341271400452    0.5308439135551454    0.4318951070308684 Si
   0.7033989429473877    0.8326696157455444    0.4239490926265717 Si
   0.3166804611682891    0.7194660902023317    0.7369873523712158 Sn
   0.9243535399436951    0.6188393235206604    0.9378204345703125 P
   0.2154463380575180    0.0286955274641514    0.9211140275001526 P
   0.6198575496673584    0.3295468091964722    0.9422370791435242 P
   0.6881330013275146    0.8573543429374696    0.2429965138435363 O
   0.0456290803849697    0.0836519449949265    0.0772654265165329 O
   0.5164945125579833    0.8272018432617189    0.5943487286567688 O
   0.3021882176399231    0.0683146268129349    0.2814483046531677 O
   0.1278678625822067    0.9429455995559692    0.6338763236999512 O
   0.7802068591117859    0.3674980998039246    0.7737592458724974 O
   0.2186978310346603    0.8499153256416321    0.9319195747375488 O
   0.7667868733406067    0.8031437993049622    0.9313932061195374 O
   0.4555635154247284    0.7037473917007446    0.2567237317562103 O
   0.8739067912101746    0.4645405113697052    0.1107869669795035 O
   0.0873247087001801    0.6357190608978273    0.9351578950881958 O
   0.4140764772891998    0.5504868030548096    0.6023156642913818 O
   0.2510377168655396    0.4975278675556183    0.4474999010562897 O
   0.8784719109535218    0.6512953639030457    0.4534415602684020 O
   0.0917626544833183    0.2984346449375153    0.4532170593738556 O
   0.9373135566711426    0.1477146595716477    0.4150159060955048 O
   0.9713680744171143    0.5701304674148560    0.7774825692176818 O
   0.3894960284233093    0.0060974606312811    0.9321708679199219 O
   0.5939633250236511    0.3471463918685914    0.4070040285587310 O
   0.4425913989543914    0.4980631768703461    0.9249157905578613 O
   0.7313680052757263    0.0100765693932772    0.3970780372619629 O
   0.6027016043663025    0.1656267195940018    0.9398367404937744 O
   0.1872143000364304    0.1805798262357712    0.7467985749244690 O
