Fe2 Se3 O12                             
   1.00000000000000     
     4.9571189671497269   -0.0172728755045569   -0.4681673082965987
     1.2364244438118184    4.7968757207029808   -0.4800632305503789
    -0.0364870608821646   -0.0076221683704675    8.6980926935264105
   Fe   Se   O 
     2     3    12
Direct
  0.4337589819583064  0.7987044583227576  0.2100434366834477
  0.8499765067490500  0.2153629886244685  0.6931014819138389
  0.4137645195700762  0.8118465576766192  0.5933162951545286
  0.8374596305072883  0.2352109419665965  0.3097653930299113
  0.4021655671707334  0.2465365953484154  0.9516236237420856
  0.5372193676516194  0.1065559163499162  0.5952938909005789
  0.7866658005119439  0.5489264200885423  0.2247337244776630
  0.4482240917349262  0.9140367032781753  0.0079110461366803
  0.3708994539145719  0.6740087677687910  0.4055896699298948
  0.7343368025502015  0.2007448746136026  0.8952541868883268
  0.1605516364523182  0.3516118651031225  0.8040614325688006
  0.1002231664403667  0.8622766616800085  0.6781601673211261
  0.6361263111032898  0.5943958498570227  0.7106795973477387
  0.5432421041830128  0.1112934705110916  0.3080189854507431
  0.9748240257340381  0.2785114319414541  0.4975779983658874
  0.0547288003497537  0.0125797452866818  0.1924632604590118
  0.2973333985829739  0.4881158883274723  0.0993483909406047
 
  0.00000000E+00  0.00000000E+00  0.00000000E+00
  0.00000000E+00  0.00000000E+00  0.00000000E+00
  0.00000000E+00  0.00000000E+00  0.00000000E+00
  0.00000000E+00  0.00000000E+00  0.00000000E+00
  0.00000000E+00  0.00000000E+00  0.00000000E+00
  0.00000000E+00  0.00000000E+00  0.00000000E+00
  0.00000000E+00  0.00000000E+00  0.00000000E+00
  0.00000000E+00  0.00000000E+00  0.00000000E+00
  0.00000000E+00  0.00000000E+00  0.00000000E+00
  0.00000000E+00  0.00000000E+00  0.00000000E+00
  0.00000000E+00  0.00000000E+00  0.00000000E+00
  0.00000000E+00  0.00000000E+00  0.00000000E+00
  0.00000000E+00  0.00000000E+00  0.00000000E+00
  0.00000000E+00  0.00000000E+00  0.00000000E+00
  0.00000000E+00  0.00000000E+00  0.00000000E+00
  0.00000000E+00  0.00000000E+00  0.00000000E+00
  0.00000000E+00  0.00000000E+00  0.00000000E+00
