Na2 Mn1 Fe3 P6 O21                      
   1.00000000000000     
     5.8329602742155267   -0.1197975447801273   -2.1281991536557308
    -1.8557677786051443    5.9391105021449304   -0.9891169433493502
     0.1231089143859476    0.1588770631848811   11.9162009777091562
   Na   Mn   Fe   P    O 
     2     1     3     6    21
Direct
  0.0561488382987942  0.8417933347270178  0.8359427298017544
  0.8931249148567514  0.9213046203441573  0.3643268214149105
  0.8002326546856577  0.6278514344147402  0.0195919045872229
  0.3896031420530594  0.8223942207891008  0.3971262560501892
  0.1463518631909574  0.5404504763017501  0.5811029839184304
  0.4943446693732787  0.3045757411373052  0.0579179367020625
  0.3928120655391825  0.7942537071476169  0.1070765934467815
  0.5557098125429110  0.4150347649000498  0.4990687465944127
  0.9648044143353975  0.1805470871371556  0.0777930844831004
  0.3991244510813318  0.3208607888323572  0.7861688102652370
  0.9250299734076165  0.3941894333650360  0.2970828942342370
  0.4881512247795426  0.9053231934119025  0.6832888017266778
  0.6604141205477854  0.3667255144667332  0.2343159039577999
  0.8551111285956492  0.9362060411945535  0.0064875278768497
  0.3137853974296237  0.7780272364399755  0.7355316213029763
  0.4674113637672350  0.1562401720747347  0.4401031457019186
  0.5443072010828406  0.6329715977047712  0.0736729383381495
  0.4762994770068635  0.8538086487259405  0.2476245884544548
  0.5274784810132072  0.1675991686466126  0.7257325698372173
  0.0640986358270060  0.6376358366113228  0.2984106218959420
  0.4485676954343992  0.9889559982287160  0.0479941478893070
  0.9852004327197389  0.1974543630260070  0.2182604678968126
  0.6134327193172932  0.5429679686459554  0.8507771349851104
  0.8285599892127031  0.5095141051110398  0.5788016473374455
  0.3055070508308440  0.8040699240737161  0.5370402736447111
  0.1218357368887610  0.6651203847135911  0.0373372754151754
  0.7859170371499608  0.3152378208072767  0.0273109125427062
  0.3089823989187220  0.2189702232269431  0.8766079013707798
  0.2105492963205696  0.2955652790500755  0.0854969843244637
  0.7261398027977919  0.8784776826272107  0.7010731621236282
  0.4907996649240579  0.5651086804667321  0.4058737504194290
  0.9928287811018613  0.3284054294867101  0.4194578283755185
  0.1904931712424677  0.3256308550895616  0.6747398834976870
 
  0.00000000E+00  0.00000000E+00  0.00000000E+00
  0.00000000E+00  0.00000000E+00  0.00000000E+00
  0.00000000E+00  0.00000000E+00  0.00000000E+00
  0.00000000E+00  0.00000000E+00  0.00000000E+00
  0.00000000E+00  0.00000000E+00  0.00000000E+00
  0.00000000E+00  0.00000000E+00  0.00000000E+00
  0.00000000E+00  0.00000000E+00  0.00000000E+00
  0.00000000E+00  0.00000000E+00  0.00000000E+00
  0.00000000E+00  0.00000000E+00  0.00000000E+00
  0.00000000E+00  0.00000000E+00  0.00000000E+00
  0.00000000E+00  0.00000000E+00  0.00000000E+00
  0.00000000E+00  0.00000000E+00  0.00000000E+00
  0.00000000E+00  0.00000000E+00  0.00000000E+00
  0.00000000E+00  0.00000000E+00  0.00000000E+00
  0.00000000E+00  0.00000000E+00  0.00000000E+00
  0.00000000E+00  0.00000000E+00  0.00000000E+00
  0.00000000E+00  0.00000000E+00  0.00000000E+00
  0.00000000E+00  0.00000000E+00  0.00000000E+00
  0.00000000E+00  0.00000000E+00  0.00000000E+00
  0.00000000E+00  0.00000000E+00  0.00000000E+00
  0.00000000E+00  0.00000000E+00  0.00000000E+00
  0.00000000E+00  0.00000000E+00  0.00000000E+00
  0.00000000E+00  0.00000000E+00  0.00000000E+00
  0.00000000E+00  0.00000000E+00  0.00000000E+00
  0.00000000E+00  0.00000000E+00  0.00000000E+00
  0.00000000E+00  0.00000000E+00  0.00000000E+00
  0.00000000E+00  0.00000000E+00  0.00000000E+00
  0.00000000E+00  0.00000000E+00  0.00000000E+00
  0.00000000E+00  0.00000000E+00  0.00000000E+00
  0.00000000E+00  0.00000000E+00  0.00000000E+00
  0.00000000E+00  0.00000000E+00  0.00000000E+00
  0.00000000E+00  0.00000000E+00  0.00000000E+00
  0.00000000E+00  0.00000000E+00  0.00000000E+00
