Cs3 V3 O9
1.0
   5.8254928588867188    0.0000000000000000    2.0101888179779048
   2.5817147047400506    5.2139920827014485    1.9944783449172974
   0.0000000000000000    0.0000000000000000    9.4289455413818359
Cs V O
3 3 9
direct
   0.9060422778129578    0.1018725931644440    0.8932889699935913 Cs
   0.0503939166665077    0.2453368753194809    0.4596296846866608 Cs
   0.4733076095581054    0.6682685613632202    0.1935111433267593 Cs
   0.6525983810424805    0.8469133973121643    0.6565839052200317 V
   0.1802027821540833    0.3760041296482086    0.0688012763857841 V
   0.3235151171684265    0.5179135799407959    0.6414992213249207 V
   0.4568061828613281    0.2027193754911423    0.1463751792907715 O
   0.0138187510892749    0.7068167328834534    0.5706220269203186 O
   0.0060166069306433    0.6512665748596191    0.1449882984161377 O
   0.0056971311569214    0.2032845020294189    0.1438853740692139 O
   0.5899447798728943    0.7848558425903319    0.8466464281082153 O
   0.2523760497570038    0.4483713805675507    0.8566659688949585 O
   0.5118622183799744    0.7074946761131287    0.5728995203971863 O
   0.7662550210952759    0.9635815024375914    0.3096833229064942 O
   0.5113900899887085    0.2077068984508514    0.5715343356132507 O
