Na1 Li1 Cd4 P4 O15
1.0
   5.1223440170288086    0.0000000000000000   -0.3763015866279601
  -0.5907734134697437    7.4901547574387735    0.9134764671325679
   0.0000000000000000    0.0000000000000000    8.8209714889526367
Na Li Cd P O
1 1 4 4 15
direct
   0.9677916765213013    0.1809442043304443    0.8145135045051575 Na
   0.5480884313583374    0.0059556961059570    0.5261989235877991 Li
   0.5138966441154480    0.1339446604251862    0.1623639613389969 Cd
   0.0060614794492722    0.4908375144004822    0.1191832646727562 Cd
   0.4266376495361328    0.6397995352745056    0.3976377248764038 Cd
   0.9823824167251587    0.7048065662384033    0.6827499270439148 Cd
   0.4860099554061890    0.8893646001815796    0.8588792681694031 P
   0.0144109083339572    0.9004223346710205    0.3080199956893921 P
   0.8643583655357361    0.3692119419574738    0.4422940313816071 P
   0.4732902944087982    0.5017287731170654    0.8874908685684204 P
   0.7012898921966553    0.3651564121246337    0.2830702960491180 O
   0.7618704438209534    0.4670603275299072    0.8864606022834778 O
   0.3249669969081879    0.5214142203330994    0.7291654348373413 O
   0.0974813699722290    0.0772341489791870    0.2102417349815369 O
   0.7996394634246826    0.2033086121082306    0.5519374608993530 O
   0.6243925690650940    0.0230917334556580    0.9547778964042664 O
   0.0839400887489319    0.7410477995872498    0.2255710363388062 O
   0.1553393155336380    0.3920601904392242    0.4029245972633362 O
   0.4819340109825134    0.6920015215873717    0.9622560739517212 O
   0.2040476948022842    0.9193301200866699    0.8169427514076233 O
   0.6373034715652466    0.8677203655242920    0.7179403305053711 O
   0.1813895851373672    0.8772909045219420    0.4637496471405029 O
   0.3258494138717651    0.3717971444129944    0.0043866541236639 O
   0.7158713936805725    0.8995497822761536    0.3361567258834839 O
   0.7812198400497437    0.5355123281478882    0.5117155909538269 O
