Na7 Cu1 H17 O13
1.0
   6.0244517326354980    0.0000000000000000    0.0600106194615352
  -1.5319234566227375    7.5009615182285145   -2.2796504497528094
   0.0000000000000000    0.0000000000000000    8.4776124954223633
Na Cu H O
7 1 17 13
direct
   0.6275584101676941    0.4246940016746521    0.3097396790981293 Na
   0.1413765996694565    0.1297749131917953    0.3661611676216125 Na
   0.4347392618656158    0.4212031364440918    0.9686811566352844 Na
   0.5509494543075562    0.4348489344120026    0.6419280171394348 Na
   0.2311297059059143    0.7705518603324890    0.6770140528678894 Na
   0.7159401774406433    0.8452692627906799    0.8047184944152832 Na
   0.0327624976634979    0.4255838692188262    0.6629584431648254 Na
   0.5526989102363586    0.8094186782836914    0.4364691674709320 Cu
   0.8971804976463318    0.3819763362407684    0.0116168148815632 H
   0.1112634167075157    0.1316144466400146    0.7214291691780090 H
   0.1619906723499298    0.0392107218503952    0.9958885908126831 H
   0.0067936601117253    0.5602677464485168    0.1599747687578201 H
   0.5920699238777161    0.8929339647293091    0.1245425045490265 H
   0.7529561519622803    0.7246796488761902    0.2115749716758728 H
   0.7085475921630859    0.2112646996974945    0.7838807702064514 H
   0.3305965065956116    0.7005171179771423    0.9262731671333312 H
   0.0622868463397026    0.8578686714172363    0.0409091971814632 H
   0.9127041697502136    0.6842399835586548    0.4840901494026184 H
   0.1940529197454453    0.4774399995803833    0.3776750266551971 H
   0.2211271822452545    0.7928045392036438    0.2314576953649521 H
   0.3608050942420959    0.0937305539846420    0.6496240496635436 H
   0.1875635832548141    0.2812464535236359    0.1399889290332794 H
   0.4976122081279755    0.0635413825511932    0.0943377614021301 H
   0.7009196877479553    0.1226077303290367    0.3231947422027588 H
   0.6821553707122803    0.1155622303485870    0.5125585794448853 H
   0.0827305167913437    0.9090797901153564    0.9352967739105225 O
   0.0703882724046707    0.8082167506217957    0.2174032926559448 O
   0.9640895128250122    0.4262472093105316    0.1343163102865219 O
   0.7650712728500366    0.3408167660236359    0.8390815258026123 O
   0.6273978948593140    0.0038074310868979    0.1000719964504242 O
   0.7501317262649536    0.1976511031389236    0.4377497434616089 O
   0.8538669347763062    0.6358942985534668    0.5729799866676331 O
   0.5865021347999573    0.6919441223144531    0.2164358347654343 O
   0.2431492358446121    0.1817574948072433    0.6640552282333374 O
   0.3792428672313690    0.6196773648262024    0.8327647447586060 O
   0.2888040840625763    0.4575287103652954    0.4590063095092773 O
   0.5446807146072388    0.9735714197158813    0.6278829574584961 O
   0.3068698346614838    0.2145476192235947    0.1200045645236969 O
