Generated by VASPKIT code
 1.000000
    6.9553460488145760   -0.0007024993263527    4.0345432026698145
    2.3195950441361424    6.5591818109824729    4.0340553473850989
   -0.0015037102201724   -0.0000269553877782    8.0460645198314342
   Sc   Cl
     1     8
Direct
    0.4707578375955333    0.7674347764592142    0.5462310420612119    Sc001
    0.2398075586411826    0.5371329952792089    0.7763822668387048    Cl001
    0.2405856951463163    0.9980692049772119    0.3154534010253663    Cl002
    0.2406386928666482    0.9979823002480891    0.7764137083026262    Cl003
    0.2204850474304001    0.5175427360604183    0.2960528005781528    Cl004
    0.7015487047639796    0.9978324039761021    0.3158045627906641    Cl005
    0.7011483861596470    0.5369982206779359    0.7765435012961017    Cl006
    0.7208460791016107    0.0174910777371124    0.7959234605499816    Cl007
    0.7011905780874883    0.5371458209086288    0.3156127776428369    Cl008
