Generated by VASPKIT code
 1.000000
    4.6320720797770472    0.0155947174150047    0.8847930026746734
    1.0327299796649174    4.9546370045285304    3.1661029989569509
    0.0109129694178372    0.1702399860166874    8.0056451718420689
   B    Sb   H    O 
     2     1     1     8
Direct
    0.4710179216017461    0.7294713128990065    0.8667372187523459     B001
    0.2225519659528240    0.5287966425315898    0.4041037896385316     B002
    0.8316452243285005    0.7022743147291357    0.1487233277849044    Sb001
    0.2429431714406378    0.1903029963829424    0.6862655904757524     H001
    0.5374421302372766    0.5255005919343326    0.3723111533308595     O001
    0.6997645841516686    0.5563036744412959    0.0061401641540762     O002
    0.1648830480153726    0.3871084767574471    0.6308677076367480     O003
    0.6201863755131305    0.0738995585991327    0.0070680091184432     O004
    0.5376578965430804    0.8254307563394361    0.6694052410631449     O005
    0.1249705325987902    0.3717816511673522    0.3306494316733112     O006
    0.1757079444962007    0.8009250709611222    0.9239144306529582     O007
    0.0218667070981728    0.7998891305476220    0.3089652034322170     O008
