Na3 Ca1 Re1 O6
1.0
   4.7617888450622567    0.0000000000000000   -3.1817154884338370
  -0.0674491413219856    4.8599140504415805   -2.9372632503509517
   0.0000000000000000    0.0000000000000000    6.2160973548889160
Na Ca Re O
3 1 1 6
direct
   0.5719824433326721    0.3953059017658234    0.0593878589570522 Na
   0.0191350094974041    0.5705543756484985    0.8612447381019592 Na
   0.1501779705286026    0.1331582218408585    0.3033343255519867 Na
   0.7356215715408325    0.9713994860649109    0.5209037661552429 Ca
   0.3768435418605804    0.7643709182739258    0.6842711567878723 Re
   0.1722918748855591    0.1037088558077812    0.6974719762802124 O
   0.3606525957584381    0.6989287137985229    0.3478898704051971 O
   0.4181056320667267    0.8455737829208375    0.0390667319297791 O
   0.0237506441771984    0.5886942744255066    0.4737799167633057 O
   0.7258149981498718    0.9553883075714112    0.8894678950309753 O
   0.5664582848548889    0.4205619990825653    0.6638140082359314 O
