Cs1 Na1 Tl1 Br3
1.0
   4.6723976135253906    0.0000000000000000    1.4416929483413701
  -0.6415981491104730    5.3896926484105725    2.0960216522216792
   0.0000000000000000    0.0000000000000000    8.1980133056640625
Cs Na Tl Br
1 1 1 3
direct
   0.5978872776031494    0.9277434349060059    0.5486718416213989 Cs
   0.2853285968303680    0.6146500110626221    0.1740450710058212 Na
   0.9095168113708496    0.2361314892768860    0.9293160438537598 Tl
   0.0934942588210106    0.4203304350376129    0.5570962429046631 Br
   0.8891158699989319    0.7141144871711731    0.9707069396972656 Br
   0.3158937096595764    0.1465084254741669    0.1150235459208488 Br
