Na3 Y2 Sc1 Zn1 O7
1.0
   4.6629257202148438    0.0000000000000000    0.0020070215687157
  -2.3185115015746756    5.0810139944520758   -0.8668918013572695
   0.0000000000000000    0.0000000000000000    7.4443755149841309
Na Y Sc Zn O
3 2 1 1 7
direct
   0.7156220674514771    0.9243600964546204    0.5720985531806946 Na
   0.1462226361036301    0.7870442867279053    0.8711658716201781 Na
   0.5806627273559570    0.6566402316093445    0.1624197810888290 Na
   0.8563257455825806    0.2069438993930817    0.0110841561108828 Y
   0.4333532750606537    0.3616109788417816    0.7227247953414916 Y
   0.0122016407549381    0.5197201967239380    0.4385886490345001 Sc
   0.2792637646198273    0.0545739904046059    0.3009498715400696 Zn
   0.2152925431728363    0.9254951477050782    0.5529661774635315 O
   0.8106279969215393    0.1163385063409805    0.2978523075580597 O
   0.3619883358478546    0.2186860293149948    0.0060741598717868 O
   0.4861596226692200    0.4650715589523316    0.4398317635059356 O
   0.9343259930610657    0.3628301918506623    0.7165313959121703 O
   0.6465233564376832    0.7872350811958314    0.8676069974899291 O
   0.0720157697796823    0.6391412615776063    0.1839601695537567 O
