Na17 Mg1 Nb1 Sn1 As6 P1 Se3             
   1.00000000000000     
     8.1486863059401795   -0.0537996841092919   -1.9453728875885090
    -2.4363307895891211    9.2713528211859959    2.4282142799964435
    -0.0555156096909107   -0.0064677964201546   10.4525642199958835
   Na   Mg   Nb   Sn   As   P    Se
    17     1     1     1     6     1     3
Direct
  0.5417406696051772  0.3171803182008870  0.7387654146705367
  0.4381691942594275  0.5514650811354651  0.3330763256029181
  0.3521028127243361  0.8623653650015775  0.1754652922661928
  0.3338140524481231  0.2882440891294652  0.1176218068536070
  0.7503954587807411  0.8533098311126728  0.1403831677895004
  0.3137103492396396  0.2267218649732116  0.4663577112704292
  0.8262810803029427  0.2229162023485470  0.9685730511409524
  0.7968479911017333  0.5872501793435715  0.5371863942175611
  0.6249613196899060  0.0578468488305779  0.5608034064921674
  0.9875754630230391  0.9697749231092381  0.4236236116423516
  0.6718691671160925  0.1402373658293834  0.2480915866890131
  0.0390019861002549  0.8292891255180530  0.8871475657225197
  0.1742787191594596  0.5880938052351944  0.7720932028240709
  0.2826657321966717  0.7481702083086733  0.4730610877411872
  0.5949409814152079  0.7022136451164028  0.7367475552901750
  0.1226304544302294  0.1610496467007147  0.7615431839944822
  0.6915172739068899  0.5218135025649150  0.0965716503567137
  0.0865900409556473  0.5306874501397422  0.0806333184179596
  0.4663043592002488  0.9270543713278796  0.8686026484182243
  0.9745814406979870  0.4083192634582988  0.3954800520668849
  0.2501050104062512  0.4433607033806856  0.5936888014364661
  0.7671033640856624  0.9805070835457965  0.8417635074150397
  0.3986609940380839  0.6690513774011329  0.0149153487921514
  0.4351077839320637  0.1119179988041038  0.9794620166136406
  0.2614711342836483  0.9311126057886390  0.6514269696717326
  0.0403233397553055  0.2635685500486877  0.2304780761370883
  0.6466155012824983  0.3460696409355340  0.3877028782466642
  0.6338498314068077  0.8359252258149042  0.4096100642674672
  0.8469169750091410  0.5293897383342233  0.8550794674770589
  0.0210683007623483  0.6990787609757925  0.2217141744631442
 
  0.00000000E+00  0.00000000E+00  0.00000000E+00
  0.00000000E+00  0.00000000E+00  0.00000000E+00
  0.00000000E+00  0.00000000E+00  0.00000000E+00
  0.00000000E+00  0.00000000E+00  0.00000000E+00
  0.00000000E+00  0.00000000E+00  0.00000000E+00
  0.00000000E+00  0.00000000E+00  0.00000000E+00
  0.00000000E+00  0.00000000E+00  0.00000000E+00
  0.00000000E+00  0.00000000E+00  0.00000000E+00
  0.00000000E+00  0.00000000E+00  0.00000000E+00
  0.00000000E+00  0.00000000E+00  0.00000000E+00
  0.00000000E+00  0.00000000E+00  0.00000000E+00
  0.00000000E+00  0.00000000E+00  0.00000000E+00
  0.00000000E+00  0.00000000E+00  0.00000000E+00
  0.00000000E+00  0.00000000E+00  0.00000000E+00
  0.00000000E+00  0.00000000E+00  0.00000000E+00
  0.00000000E+00  0.00000000E+00  0.00000000E+00
  0.00000000E+00  0.00000000E+00  0.00000000E+00
  0.00000000E+00  0.00000000E+00  0.00000000E+00
  0.00000000E+00  0.00000000E+00  0.00000000E+00
  0.00000000E+00  0.00000000E+00  0.00000000E+00
  0.00000000E+00  0.00000000E+00  0.00000000E+00
  0.00000000E+00  0.00000000E+00  0.00000000E+00
  0.00000000E+00  0.00000000E+00  0.00000000E+00
  0.00000000E+00  0.00000000E+00  0.00000000E+00
  0.00000000E+00  0.00000000E+00  0.00000000E+00
  0.00000000E+00  0.00000000E+00  0.00000000E+00
  0.00000000E+00  0.00000000E+00  0.00000000E+00
  0.00000000E+00  0.00000000E+00  0.00000000E+00
  0.00000000E+00  0.00000000E+00  0.00000000E+00
  0.00000000E+00  0.00000000E+00  0.00000000E+00
