Na4 Mg1 Fe2 O6
1.0
   5.4261541366577148    0.0000000000000000    0.5663813352584837
   1.5840023763243065    5.4757593485896194   -0.4027006328105928
   0.0000000000000000    0.0000000000000000    5.8693680763244629
Na Mg Fe O
4 1 2 6
direct
   0.7451068162918091    0.6990315914154053    0.6138387322425842 Na
   0.0327923819422722    0.2199163436889648    0.4951944947242737 Na
   0.1152908131480217    0.9561749100685120    0.9205069541931152 Na
   0.2901860773563385    0.6708808541297913    0.3946299552917480 Na
   0.5866032838821411    0.1203098893165588    0.2832623124122620 Mg
   0.9146734476089478    0.5019824504852295    0.0723640620708466 Fe
   0.4266139864921570    0.3024666309356689    0.8122925758361816 Fe
   0.7045918703079225    0.4167827963829041    0.3261258006095886 O
   0.4230244457721710    0.0400256589055061    0.5889101028442383 O
   0.1429228931665421    0.5714440345764160    0.7663682103157043 O
   0.8947705030441284    0.8224137425422668    0.2216360121965408 O
   0.2643220424652100    0.2577055394649506    0.1192046329379082 O
   0.7627650499343872    0.3298780918121338    0.8413617014884949 O
