Na4 Fe2 O5
1.0
   5.5910644531250000    0.0000000000000000   -1.2543082237243663
  -2.6046011115770118    4.4674693766335789   -1.9023747444152832
   0.0000000000000000    0.0000000000000000    5.7764315605163574
Na Fe O
4 2 5
direct
   0.9908300042152405    0.7937687039375304    0.6003969907760620 Na
   0.5497173666954041    0.1324209421873093    0.1531679928302765 Na
   0.7821293473243713    0.6635979413986205    0.0010165357962251 Na
   0.2338056564331055    0.2562147080898284    0.4278795123100281 Na
   0.5008236169815063    0.9054608941078186    0.6255424618721008 Fe
   0.2436794191598892    0.4639739990234375    0.0027086734771729 Fe
   0.5514442920684814    0.6000754237174988    0.3413427174091339 O
   0.8882550001144409    0.1171816363930702    0.9209508895874022 O
   0.4061280190944672    0.2191775888204575    0.8076441287994385 O
   0.2919608652591705    0.6547468900680542    0.7755943536758423 O
   0.2155062407255173    0.7980542182922363    0.2746466100215912 O
