Na6 Cd1 Se4
1.0
   6.6922740936279297    0.0000000000000000    0.0367195531725887
   0.0094984313970146    6.6992296593533602    0.0273962169885624
   0.0000000000000000    0.0000000000000000    6.6911220550537109
Na Cd Se
6 1 4
direct
   0.8042656779289246    0.0276993792504072    0.6977777481079102 Na
   0.3046265542507172    0.0285251941531897    0.6982777714729309 Na
   0.8037598133087158    0.5280702114105225    0.1975091099739075 Na
   0.3041471540927887    0.0279453918337822    0.1985947787761688 Na
   0.8044536113739014    0.5278945565223694    0.6976910829544067 Na
   0.3041669726371765    0.5279365777969360    0.1981606781482697 Na
   0.8037897944450378    0.0277338307350874    0.1983076483011246 Cd
   0.5656911134719849    0.2664105892181396    0.9594401717185974 Se
   0.0426634810864925    0.2664456069469452    0.4358291923999786 Se
   0.0434623658657074    0.7892729043960571    0.9599059224128723 Se
   0.5659534335136414    0.7896020412445068    0.4361804425716400 Se
