Generated by VASPKIT code
 1.000000
    5.9536603904884835    0.0082041211720985   -0.0145232545356944
   -3.0013654530811280    5.7131544307255435   -2.9829301958536472
    0.0207529289940702    0.0112119848608088    5.9627877287946855
   V    S 
     1     4
Direct
    0.2509408189976421    0.8017091952033545    0.7910481402708270     V001
    0.9251117143009914    0.5796597654942580    0.4657036234827287     S001
    0.3534088947650047    0.5784679566893094    0.8930275588983113     S002
    0.5769040351334346    0.0240933661315296    0.6880890329085395     S003
    0.1473165879030733    0.0230192829697663    0.1168105999588578     S004
