Na4 Sn1 O4
1.0
   4.1310343742370605    0.0000000000000000   -1.5326746702194209
  -0.5399503363623809    4.0902779204874387   -1.5139558315277097
   0.0000000000000000    0.0000000000000000    6.4943237304687500
Na Sn O
4 1 4
direct
   0.8958957195281982    0.6145765781402588    0.2979346215724945 Na
   0.5350078344345093    0.7514050602912903    0.5819534659385681 Na
   0.3974213898181915    0.1101568937301636    0.2945877909660339 Na
   0.7556014657020569    0.9703629612922667    0.0089073888957500 Na
   0.1460895091295242    0.3612700998783112    0.7961555719375609 Sn
   0.3319665491580963    0.5472164154052734    0.1661676615476608 O
   0.1471420079469681    0.8621727228164673    0.7954815030097960 O
   0.6452870965003967    0.3607720732688904    0.7952222824096679 O
   0.9613783955574036    0.1774020493030548    0.4264141917228698 O
