Rb1 Na2 Ir1 F6
1.0
   5.2772393226623526    0.0000000000000000    3.0538096427917489
   1.7570597500697718    4.9715593737337054    3.0665824413299556
   0.0000000000000000    0.0000000000000000    6.0976357460021973
Rb Na Ir F
1 2 1 6
direct
   0.7543992400169371    0.2344919890165329    0.7018229365348816 Rb
   0.2546642422676086    0.7350679636001588    0.2017830312252045 Na
   0.5045451521873473    0.9846203327178956    0.4519267082214355 Na
   0.0047252727672457    0.4850134849548340    0.9519114494323730 Ir
   0.2396988272666931    0.2490038871765137    0.7166018486022949 F
   0.7687664031982422    0.7200670838356019    0.7165274024009705 F
   0.7685022950172424    0.7203615307807922    0.1877770721912384 F
   0.2398412376642227    0.2497382611036301    0.1871146410703659 F
   0.7689355015754700    0.2492395639419556    0.1872432827949524 F
   0.2401144802570344    0.7203010916709900    0.7165642380714417 F
