Na6 Ga5 Si1 Ge4 H7 O24
1.0
   5.8912782669067383    0.0000000000000000    0.0788764134049411
  -2.1905514236465966   10.3763408985285572   -1.1925660371780402
   0.0000000000000000    0.0000000000000000   10.3075704574584961
Na Ga Si Ge H O
6 5 1 4 7 24
direct
   0.6302025914192200    0.1856636703014374    0.7988382577896119 Na
   0.9361225366592406    0.6921732425689697    0.8741554617881776 Na
   0.6470790505409241    0.3237713873386383    0.3611074090003967 Na
   0.0107336957007647    0.9617019891738892    0.6934247016906738 Na
   0.8772041201591491    0.8953348994255066    0.2908578813076019 Na
   0.0603432767093182    0.6208410263061523    0.5014826059341431 Na
   0.9932662248611449    0.4443626999855042    0.0483313985168934 Ga
   0.5825089812278748    0.9482079744338989    0.9671769738197328 Ga
   0.4971371889114379    0.5484943389892578    0.5933335423469543 Ga
   0.0383975356817245    0.1547310054302216    0.4901137053966523 Ga
   0.4849288165569305    0.4502494037151337    0.0262178909033537 Ga
   0.4762234985828399    0.8233215212821959    0.6859110593795776 Si
   0.1684579700231552    0.2596934735774994    0.2263431102037430 Ge
   0.1803786009550095    0.3506336808204651    0.7647255659103394 Ge
   0.0899335965514183    0.9839335083961487    0.0367302037775517 Ge
   0.4668633341789245    0.9826313853263855    0.4396997690200806 Ge
   0.9010545015335082    0.6389966607093811    0.2106168568134308 H
   0.8184379935264586    0.4391291737556457    0.6357396841049194 H
   0.5319460630416870    0.6453873515129089    0.3859126269817352 H
   0.1481708884239197    0.7193152308464050    0.2729490399360657 H
   0.0731553733348846    0.1545261889696121    0.9117187261581422 H
   0.5832688212394714    0.1803537011146545    0.0737017616629601 H
   0.3957612514495850    0.8840253949165344    0.2050737440586090 H
   0.4291161000728607    0.5803776383399963    0.4231744408607483 O
   0.9799255728721618    0.6926518082618713    0.2942570149898529 O
   0.6119368076324463    0.7025232911109924    0.7051640152931213 O
   0.4417895972728729    0.3576080203056335    0.8496639728546144 O
   0.5712231993675232    0.8792287707328795    0.5424710512161255 O
   0.9596567153930663    0.3484687209129333    0.8804703950881959 O
   0.0983499288558960    0.0829074680805206    0.1887233257293701 O
   0.2938704788684845    0.8817393183708191    0.0325235426425934 O
   0.9578495025634765    0.3473072052001953    0.1971002817153931 O
   0.6526021361351013    0.1222354993224144    0.0159507803618908 O
   0.1873834133148193    0.7815899848937987    0.6957069039344788 O
   0.2088894844055176    0.4779357016086578    0.6635714769363403 O
   0.2172818928956985    0.2737884521484375    0.3965482115745544 O
   0.6018183231353760    0.9485774040222168    0.7895860075950623 O
   0.1420768052339554    0.0773098766803741    0.9013881087303163 O
   0.2751404047012329    0.5485243797302246    0.0483188815414906 O
   0.0549886226654053    0.1973445862531662    0.6706861257553101 O
   0.4602110385894775    0.8768515586853027    0.2905331254005432 O
   0.7332253456115723    0.4572053253650665    0.5637214183807373 O
   0.8164572119712831    0.8740023374557496    0.0263484828174114 O
   0.4323504269123077    0.3205088376998901    0.1501303166151047 O
   0.1751940846443176    0.0043752784840763    0.4759770929813386 O
   0.7826195955276489    0.5470957756042480    0.0527676716446877 O
   0.7085345983505249    0.1172091886401176    0.4375041425228119 O
