Na3 Zn5 P3 C1 O16
1.0
   5.0567007064819336    0.0000000000000000    0.1431754529476154
   0.5944715089782719    7.6573364763498564   -0.4263029992580420
   0.0000000000000000    0.0000000000000000    9.3777904510498047
Na Zn P C O
3 5 3 1 16
direct
   0.5465273857116699    0.4407615065574646    0.1090255901217461 Na
   0.1241834834218025    0.1852694749832154    0.5662821531295776 Na
   0.9734496474266053    0.9239685535430908    0.9264127016067505 Na
   0.7480223774909973    0.5115675330162048    0.4892367422580719 Zn
   0.6790404319763184    0.9058417081832887    0.5859465003013611 Zn
   0.0982641205191612    0.2135251611471176    0.1796472966670990 Zn
   0.0515005700290203    0.4405876696109772    0.8632063865661621 Zn
   0.4765169620513917    0.8609424829483033    0.1919677555561066 Zn
   0.9869037270545961    0.6184003949165344    0.1748603433370590 P
   0.1946782320737839    0.6839443445205688    0.6445193886756897 P
   0.5862383842468262    0.1744261234998703    0.3546932339668274 P
   0.5636615753173828    0.2207109481096268    0.8017122745513916 C
   0.3094763755798340    0.2568568587303162    0.3432207703590393 O
   0.7400720715522766    0.1900346130132675    0.2141632139682770 O
   0.0582838170230388    0.8564408421516420    0.5937516093254089 O
   0.0837034508585930    0.5173543095588684    0.5808473825454712 O
   0.2800322473049164    0.0223572794348001    0.0777043327689171 O
   0.5738371014595032    0.9770444631576538    0.3872129619121552 O
   0.2401499152183533    0.6864560842514039    0.2257532030344009 O
   0.4948191344738007    0.6859222650527955    0.5975117683410645 O
   0.1610052734613419    0.6779736280441285    0.8073371648788453 O
   0.7116902470588684    0.2608937323093414    0.4816073775291443 O
   0.6839039325714111    0.0651594251394272    0.7613607048988342 O
   0.8031077980995178    0.7420929670333863    0.0867226794362068 O
   0.3049625754356384    0.2456109672784806    0.7876248359680176 O
   0.8088299632072449    0.5644790530204773    0.2945142388343811 O
   0.0730836838483811    0.4486693739891052    0.0771646723151207 O
   0.6927999258041382    0.3426689803600312    0.8622451424598696 O
