Na1 Sr1 Hf1 Sb1 O6
1.0
   4.9817814826965332    0.0000000000000000    2.8737390041351323
   1.6617997897786547    4.6924970968455995    2.8752257823944092
   0.0000000000000000    0.0000000000000000    5.7471861839294434
Na Sr Hf Sb O
1 1 1 1 6
direct
   0.3550789654254914    0.2460625767707825    0.7051593065261841 Na
   0.8548691868782043    0.7457783222198486    0.2048005908727646 Sr
   0.6048835515975952    0.4959658086299896    0.9546512365341187 Hf
   0.1048187538981438    0.9958835244178772    0.4550945162773132 Sb
   0.3510085344314575    0.2415186464786529    0.2084122598171234 O
   0.3508598506450654    0.7490407824516296    0.7010959386825562 O
   0.8584979176521301    0.2418018877506256    0.2081894576549530 O
   0.3511963784694671    0.7492311596870422    0.2085909694433212 O
   0.8583397269248962    0.2419330626726150    0.7015686035156250 O
   0.8586743474006653    0.7496153712272644    0.7009224891662598 O
