Na1 Al1 Si1 Te4
1.0
   6.4592127799987793    0.0000000000000000   -0.1841420829296124
  -0.0105087545961076    6.5669881661445473   -0.1182221546769147
   0.0000000000000000    0.0000000000000000    6.3762679100036621
Na Al Si Te
1 1 1 4
direct
   0.6427016258239746    0.9928978681564330    0.1229308173060417 Na
   0.1390625983476639    0.4924597740173340    0.1281872987747192 Al
   0.1356316804885864    0.4913110435009003    0.6264122724533081 Si
   0.9018034338951111    0.7196012139320374    0.3924630284309387 Te
   0.9066292643547058    0.2644725441932678    0.8565112352371216 Te
   0.3677289187908173    0.7220582365989685    0.8647370338439943 Te
   0.3667967319488525    0.2583147585391998    0.3901995420455933 Te
