Na5 Zr1 Sn1 Ge1 As10 O32                
   1.00000000000000     
     6.8677992028707679    0.0194540920338870   -0.1821531764587911
    -1.6425391794276407    7.2382161235490186   -1.5334622087958230
     0.0284494841653762    0.0575078958106021   14.8878846976406347
   Na   Zr   Sn   Ge   As   O 
     5     1     1     1    10    32
Direct
  0.7170770288753382  0.1968834092445060  0.1755856043283678
  0.9920398479128698  0.0789777456262316  0.6010611465405330
  0.6229596243063198  0.6240515566785818  0.0024968699732813
  0.9114253713791758  0.4493618009258501  0.7912948586936388
  0.2733683571986742  0.4216993848192031  0.1711667513892438
  0.3882122789192587  0.8950846134169790  0.8753549764231149
  0.5111513763069537  0.4947858683272038  0.4506002457834615
  0.2892526428616335  0.1062674785226997  0.3087046300634138
  0.3406485295414417  0.3451933020246884  0.8109824141839496
  0.3708598490405292  0.8290685518402243  0.6194151668143691
  0.9808278584946685  0.2431571898836711  0.3880789479283827
  0.8315834228324782  0.6562806735259571  0.2012253689467553
  0.5701131518707809  0.2824966265752299  0.6290833774579826
  0.5932464964114794  0.8566538553436404  0.3501406092819620
  0.8829713615117478  0.9006758209034448  0.8169149200080729
  0.0399106616045388  0.6746466751235081  0.4448708026144494
  0.8294650445029310  0.2256536385091899  0.9772470039266975
  0.2321297857940184  0.8422113091325512  0.1008076561566771
  0.1740993595075462  0.4820865473925501  0.4326640532669023
  0.8136437836819396  0.5364760477242865  0.4676036001655434
  0.7398579490873226  0.8632125845852404  0.2514215739012060
  0.8346891588049992  0.9374226198752534  0.7098950376673109
  0.1209293439187943  0.7640398702942774  0.5744025642081452
  0.4290766421198157  0.3730142975771674  0.5600039227819806
  0.3522722521524323  0.5500499748201177  0.8851048662548191
  0.1492137315904857  0.1102093669623451  0.4180778736660473
  0.3607575584044587  0.8956990352972622  0.3274602972973675
  0.6480616566055396  0.4894971701376027  0.1422296759935714
  0.9679423775350029  0.7766771380362635  0.1199837732479979
  0.7389698115159936  0.9904762893619669  0.4418887390788881
  0.3556295430555010  0.6791754562795261  0.1102186060056356
  0.5227150421190260  0.6215323024141687  0.3398152941118354
  0.8102742112081711  0.2976121849013783  0.6164016615295624
  0.0760172485092990  0.2072962883563565  0.2732940321481974
  0.9695726629550581  0.2740460838173868  0.0793736381269718
  0.5298556176275736  0.7479604296363670  0.5431166436302675
  0.9735233779735585  0.1185939191104521  0.8930766846287617
  0.3321044817610799  0.0504258458463818  0.1799273634307489
  0.3935672870243756  0.8002209090009483  0.7275112357871177
  0.0697307620651923  0.7847294960532277  0.8237709401793174
  0.3819992679234189  0.1544165650066890  0.8528303255554851
  0.1434032307441635  0.2950515712091912  0.7316709652318588
  0.6653361525855759  0.7973949538029870  0.8584786694439821
  0.6082750359684930  0.0664152902561124  0.9845664524221457
  0.5618395885171369  0.3948672710447239  0.7453003974795681
  0.2304753090706297  0.8943870793233318  0.9943663332602141
  0.5112997607093746  0.2767844599178509  0.3435579820782034
  0.9829871921563036  0.5947364367744797  0.2759155476958797
  0.3946496884530060  0.0651171713883127  0.6141304517447007
  0.7978283275988436  0.4132523590351043  0.9373078371997414
 
  0.00000000E+00  0.00000000E+00  0.00000000E+00
  0.00000000E+00  0.00000000E+00  0.00000000E+00
  0.00000000E+00  0.00000000E+00  0.00000000E+00
  0.00000000E+00  0.00000000E+00  0.00000000E+00
  0.00000000E+00  0.00000000E+00  0.00000000E+00
  0.00000000E+00  0.00000000E+00  0.00000000E+00
  0.00000000E+00  0.00000000E+00  0.00000000E+00
  0.00000000E+00  0.00000000E+00  0.00000000E+00
  0.00000000E+00  0.00000000E+00  0.00000000E+00
  0.00000000E+00  0.00000000E+00  0.00000000E+00
  0.00000000E+00  0.00000000E+00  0.00000000E+00
  0.00000000E+00  0.00000000E+00  0.00000000E+00
  0.00000000E+00  0.00000000E+00  0.00000000E+00
  0.00000000E+00  0.00000000E+00  0.00000000E+00
  0.00000000E+00  0.00000000E+00  0.00000000E+00
  0.00000000E+00  0.00000000E+00  0.00000000E+00
  0.00000000E+00  0.00000000E+00  0.00000000E+00
  0.00000000E+00  0.00000000E+00  0.00000000E+00
  0.00000000E+00  0.00000000E+00  0.00000000E+00
  0.00000000E+00  0.00000000E+00  0.00000000E+00
  0.00000000E+00  0.00000000E+00  0.00000000E+00
  0.00000000E+00  0.00000000E+00  0.00000000E+00
  0.00000000E+00  0.00000000E+00  0.00000000E+00
  0.00000000E+00  0.00000000E+00  0.00000000E+00
  0.00000000E+00  0.00000000E+00  0.00000000E+00
  0.00000000E+00  0.00000000E+00  0.00000000E+00
  0.00000000E+00  0.00000000E+00  0.00000000E+00
  0.00000000E+00  0.00000000E+00  0.00000000E+00
  0.00000000E+00  0.00000000E+00  0.00000000E+00
  0.00000000E+00  0.00000000E+00  0.00000000E+00
  0.00000000E+00  0.00000000E+00  0.00000000E+00
  0.00000000E+00  0.00000000E+00  0.00000000E+00
  0.00000000E+00  0.00000000E+00  0.00000000E+00
  0.00000000E+00  0.00000000E+00  0.00000000E+00
  0.00000000E+00  0.00000000E+00  0.00000000E+00
  0.00000000E+00  0.00000000E+00  0.00000000E+00
  0.00000000E+00  0.00000000E+00  0.00000000E+00
  0.00000000E+00  0.00000000E+00  0.00000000E+00
  0.00000000E+00  0.00000000E+00  0.00000000E+00
  0.00000000E+00  0.00000000E+00  0.00000000E+00
  0.00000000E+00  0.00000000E+00  0.00000000E+00
  0.00000000E+00  0.00000000E+00  0.00000000E+00
  0.00000000E+00  0.00000000E+00  0.00000000E+00
  0.00000000E+00  0.00000000E+00  0.00000000E+00
  0.00000000E+00  0.00000000E+00  0.00000000E+00
  0.00000000E+00  0.00000000E+00  0.00000000E+00
  0.00000000E+00  0.00000000E+00  0.00000000E+00
  0.00000000E+00  0.00000000E+00  0.00000000E+00
  0.00000000E+00  0.00000000E+00  0.00000000E+00
  0.00000000E+00  0.00000000E+00  0.00000000E+00
