Na2 Li1 Mo1 F6
1.0
   4.9768638610839844    0.0000000000000000    2.8940629959106454
   1.6489796576757940    4.7025226574464627    2.9012410640716562
   0.0000000000000000    0.0000000000000000    5.7653026580810547
Na Li Mo F
2 1 1 6
direct
   0.9536005258560181    0.6345674395561218    0.6978496909141541 Na
   0.4531143009662628    0.1344815194606781    0.1979339122772216 Na
   0.7036761045455934    0.3843074440956115    0.4482493996620177 Li
   0.2034146636724473    0.8849630951881408    0.9478970170021056 Mo
   0.4564422070980072    0.6309536695480346    0.6942890882492065 F
   0.9498970508575439    0.1383687555789948    0.2014324665069579 F
   0.9493999481201172    0.6312022209167480    0.2009001374244690 F
   0.4567431211471558    0.1381563097238541    0.6944304108619690 F
   0.9500815868377686    0.1380347460508347    0.6939826011657715 F
   0.4567614793777466    0.6310858130455017    0.2020574063062668 F
