Rb7 Mn2 C11 N13
1.0
   7.4299302101135245    0.0000000000000000   -1.0695354938507091
   1.4813128803824607    8.3923739618668929    0.4763365685939795
   0.0000000000000000    0.0000000000000000   11.5026788711547852
Rb Mn C N
7 2 11 13
direct
   0.6417914032936096    0.0914709344506264    0.0462729483842850 Rb
   0.1574922055006027    0.3700323700904846    0.5023651719093323 Rb
   0.7354565262794495    0.8417037725448610    0.4002203345298767 Rb
   0.1832786351442337    0.5827134251594543    0.9339843392372131 Rb
   0.1849546730518341    0.9560391902923585    0.2391121536493301 Rb
   0.1657868474721909    0.1057969629764557    0.8963465094566345 Rb
   0.6671878695487976    0.4780237078666688    0.7155215740203857 Rb
   0.6692207455635071    0.9704774022102356    0.7187098264694214 Mn
   0.6717467904090881    0.4670138955116272    0.2142371237277985 Mn
   0.8355025053024292    0.1059526577591896    0.6655610203742981 C
   0.4408095777034760    0.3515469729900360    0.1602612733840942 C
   0.4961075782775879    0.8414769768714905    0.7709788084030151 C
   0.4952132105827332    0.0165407247841358    0.5530318021774292 C
   0.8438320159912109    0.7653260231018068    0.6738009452819824 C
   0.8075177669525146    0.2547296285629272    0.2763321101665497 C
   0.4965983629226685    0.1787843853235245    0.7626146078109741 C
   0.7802141904830933    0.4287861883640289    0.0493940040469170 C
   0.9031127095222473    0.5782945156097412    0.2596873342990875 C
   0.8401305675506592    0.9204710125923157    0.8832584619522095 C
   0.5374588370323181    0.6825605630874634    0.1474041491746902 C
   0.4004369676113129    0.0331825017929077    0.4569795131683350 N
   0.9458607435226440    0.9016464352607728    0.9823966026306152 N
   0.8479328155517578    0.3942323327064514    0.9609148502349854 N
   0.5150815248489380    0.5286689996719360    0.4634087383747101 N
   0.9439045190811157    0.6468635201454163    0.6441810727119446 N
   0.3938095271587372    0.3013984560966492    0.7894938588142395 N
   0.9396558403968811    0.1883175522089005    0.6448987126350403 N
   0.0247000940144062    0.6494517326354980    0.2875976264476776 N
   0.3228737711906433    0.2726447582244873    0.1282554268836975 N
   0.3955390751361847    0.7644332647323608    0.7966782450675964 N
   0.8787976503372192    0.1302412152290344    0.3034887015819550 N
   0.5799283385276794    0.4969133138656616    0.3733288943767548 N
   0.4622541666030884    0.8121314644813539    0.1190825477242470 N
