Na8 Fe1 O5                              
   1.00000000000000     
     6.5632034356555984   -0.0920240467442971    2.3419482114317196
     0.2686128153467500    6.1912451771700034   -3.1382238821610904
    -0.4883550362106617   -0.2671077268111015    5.7013267977676421
   Na   Fe   O 
     8     1     5
Direct
  0.0744403875483775  0.6735785760440101  0.9643544158311693
  0.3240110378391811  0.1233066023989863 -0.0108137845696045
  0.9694563396259128  0.4086074555598365  0.3083981798944416
 -0.0197191181357447  0.9079429023036640  0.5744176407173109
  0.7676974517427423  0.3498455245460226  0.8963397060653591
  0.5615581634113275  0.6081041865108112  0.6235851335492261
  0.4116666466319565  0.6061965239270874  0.1981224136541163
  0.6529573592344416  0.9783038540066809  0.3091306318519010
  0.2882470758251625  0.2346705611592189  0.5622974469437956
  0.3016079682226669  0.9519013771695570  0.2757381979366957
  0.2591875447592696  0.4423901065211233  0.4711089825201608
  0.7712823446314813  0.6721308329514993  0.2919014894591860
  0.5037672206628918  0.3036010751983056  0.7118148254092930
  0.0909460900402344  0.2568668576911459  0.8440171918823411
 
  0.00000000E+00  0.00000000E+00  0.00000000E+00
  0.00000000E+00  0.00000000E+00  0.00000000E+00
  0.00000000E+00  0.00000000E+00  0.00000000E+00
  0.00000000E+00  0.00000000E+00  0.00000000E+00
  0.00000000E+00  0.00000000E+00  0.00000000E+00
  0.00000000E+00  0.00000000E+00  0.00000000E+00
  0.00000000E+00  0.00000000E+00  0.00000000E+00
  0.00000000E+00  0.00000000E+00  0.00000000E+00
  0.00000000E+00  0.00000000E+00  0.00000000E+00
  0.00000000E+00  0.00000000E+00  0.00000000E+00
  0.00000000E+00  0.00000000E+00  0.00000000E+00
  0.00000000E+00  0.00000000E+00  0.00000000E+00
  0.00000000E+00  0.00000000E+00  0.00000000E+00
  0.00000000E+00  0.00000000E+00  0.00000000E+00
