Na4 Mg2 Ta1 Ti1 P5 O21                  
   1.00000000000000     
     6.5090103263669015   -0.0050356804149604   -1.2348272137049761
    -2.1656883094051764    7.4904184593343857   -3.1715227849573275
     0.0110050383995968   -0.0028468400907793    8.9566705778505717
   Na   Mg   Ta   Ti   P    O 
     4     2     1     1     5    21
Direct
  0.9819715885785638  0.9894917323474988  0.4097930644393653
  0.6623497052998332  0.2649927690453999  0.2573918271401288
  0.4289999771020556  0.4487973567107175  0.7050521529729922
  0.8940303960780908  0.8745619035336265  0.9626764437820807
  0.4619252131713628  0.5463751214958351  0.1346402071201308
  0.6820345611893669  0.2085439567141114  0.9006650180590696
  0.1057607923948045  0.7338707607046487  0.6268853119069517
  0.4857098495360264  0.0307033116613249  0.4498500083660189
  0.4427936864033337  0.8705127911372342  0.0159839908776391
  0.1461680451184058  0.1715020853773736  0.8273437765642929
  0.9762550771291945  0.6066583974347697  0.1870472275422655
  0.5629609151916034  0.6721904833608380  0.4922237204445304
  0.8914667844708339  0.3432801853287227  0.6478088193677309
  0.2181079349206520  0.8204008924525471  0.8756715167948467
  0.1389199902682322  0.9915063749668992  0.6824295124635262
  0.0289090191114316  0.6772585212659644  0.3925292658707552
  0.5677526166800289  0.7863854132549394  0.3889695327258527
  0.1606777826203952  0.5433176028346642  0.1351007244447838
  0.0916979360955684  0.2857093388548822  0.7207846856490570
  0.5089446380628639  0.4815919997309312  0.3602969195171540
  0.7673646498173954  0.4482511828793543  0.1214976662126465
  0.6107663821857650  0.0066058912375622  0.9922782152573701
  0.4111648958916484  0.9628464306454443  0.1891382774968415
  0.4904708352769276  0.6901234568658542  0.9856054273454578
  0.9792873916479353  0.1489053367936861  0.9163064302150306
  0.3948261042771016  0.6931002581585542  0.6006114473267591
  0.3157821185419978  0.1658309327027338  0.4686074006263076
  0.7742352985961700  0.4116260868260318  0.7748959558440445
  0.7893962629425165  0.7276699129020472  0.6266325657806439
  0.7699754748231734  0.1869858383155798  0.4757712977156317
  0.9372683721202520  0.7669349722394370  0.1596028983250627
  0.3775768498311358  0.2776480148661641  0.9331373160104646
  0.0160562897022054  0.4843381448949161  0.5996950921511905
  0.5614230018561697  0.0536681820311052  0.6578654906995413
 
  0.00000000E+00  0.00000000E+00  0.00000000E+00
  0.00000000E+00  0.00000000E+00  0.00000000E+00
  0.00000000E+00  0.00000000E+00  0.00000000E+00
  0.00000000E+00  0.00000000E+00  0.00000000E+00
  0.00000000E+00  0.00000000E+00  0.00000000E+00
  0.00000000E+00  0.00000000E+00  0.00000000E+00
  0.00000000E+00  0.00000000E+00  0.00000000E+00
  0.00000000E+00  0.00000000E+00  0.00000000E+00
  0.00000000E+00  0.00000000E+00  0.00000000E+00
  0.00000000E+00  0.00000000E+00  0.00000000E+00
  0.00000000E+00  0.00000000E+00  0.00000000E+00
  0.00000000E+00  0.00000000E+00  0.00000000E+00
  0.00000000E+00  0.00000000E+00  0.00000000E+00
  0.00000000E+00  0.00000000E+00  0.00000000E+00
  0.00000000E+00  0.00000000E+00  0.00000000E+00
  0.00000000E+00  0.00000000E+00  0.00000000E+00
  0.00000000E+00  0.00000000E+00  0.00000000E+00
  0.00000000E+00  0.00000000E+00  0.00000000E+00
  0.00000000E+00  0.00000000E+00  0.00000000E+00
  0.00000000E+00  0.00000000E+00  0.00000000E+00
  0.00000000E+00  0.00000000E+00  0.00000000E+00
  0.00000000E+00  0.00000000E+00  0.00000000E+00
  0.00000000E+00  0.00000000E+00  0.00000000E+00
  0.00000000E+00  0.00000000E+00  0.00000000E+00
  0.00000000E+00  0.00000000E+00  0.00000000E+00
  0.00000000E+00  0.00000000E+00  0.00000000E+00
  0.00000000E+00  0.00000000E+00  0.00000000E+00
  0.00000000E+00  0.00000000E+00  0.00000000E+00
  0.00000000E+00  0.00000000E+00  0.00000000E+00
  0.00000000E+00  0.00000000E+00  0.00000000E+00
  0.00000000E+00  0.00000000E+00  0.00000000E+00
  0.00000000E+00  0.00000000E+00  0.00000000E+00
  0.00000000E+00  0.00000000E+00  0.00000000E+00
  0.00000000E+00  0.00000000E+00  0.00000000E+00
