Na3 Cu1 F6
1.0
   5.0664968490600595    0.0000000000000000    2.9269199371337891
   1.6868424270954563    4.7765525786124332    2.9207768440246586
   0.0000000000000000    0.0000000000000000    5.8464932441711426
Na Cu F
3 1 6
direct
   0.3074729144573212    0.3654041588306427    0.9553688764572144 Na
   0.8069490194320679    0.8652480244636535    0.4554731845855715 Na
   0.5570642948150635    0.6155045032501221    0.2055190652608871 Na
   0.0568158365786076    0.1154572442173958    0.7053593993186951 Cu
   0.8205392956733704    0.3518117666244507    0.9419711232185364 F
   0.8207939863204956    0.3518745601177216    0.4685440957546235 F
   0.8206385374069214    0.8789572119712830    0.9419159889221191 F
   0.2932635843753815    0.3519150912761688    0.4689437150955200 F
   0.2935111820697784    0.8792283535003662    0.9420652985572815 F
   0.2935436964035035    0.8790919184684752    0.4684907197952271 F
