Na4 Mg1 Fe1 O6
1.0
   5.3867959976196298    0.0000000000000000    1.1311173439025863
  -1.8256036348531248    4.4924445218709739   -2.7106807231903085
   0.0000000000000000    0.0000000000000000    5.6846165657043457
Na Mg Fe O
4 1 1 6
direct
   0.6091672182083130    0.9669340252876282    0.5724377036094666 Na
   0.1091449335217476    0.8152107000350952    0.2665590643882751 Na
   0.1076218932867050    0.4682936668395997    0.5744296312332153 Na
   0.6072815060615540    0.3156948983669281    0.2689433395862579 Na
   0.1088510006666183    0.1408217549324036    0.9199118614196777 Mg
   0.6080416440963745    0.6420037150382996    0.9202610850334167 Fe
   0.8508023619651794    0.0122070033103228    0.1814331859350204 O
   0.4108221530914307    0.8368626236915588    0.9202736616134644 O
   0.8511730432510376    0.7504476308822632    0.6590290069580078 O
   0.3652588725090027    0.5343760251998901    0.1826589703559875 O
   0.3663401901721954    0.2725233733654022    0.6595801711082458 O
   0.8040187358856201    0.4479940533638000    0.9204980731010437 O
