Generated by VASPKIT code
 1.000000
    5.2879882684194595   -0.1775971303396847    0.5770624161992614
    1.3689934546477107    5.3060158413560616   -0.4930692422208728
    0.0387236737361634   -0.1248450641611833    5.5907617740125399
   Mg   Fe   O 
     1     2     6
Direct
    0.6138365024712092    0.1237893033319301    0.2385605245181541    Mg001
    0.9047494270275469    0.4925420934862548    0.0737268026970153    Fe001
    0.4255584950823258    0.3091337885939782    0.8149586255130565    Fe002
    0.6984402243731140    0.4425146245467361    0.3471579465410514     O001
    0.4220086774916441    0.0626647256268933    0.5635288987808771     O002
    0.1285149091144333    0.5412069263709566    0.7637066045267554     O003
    0.9069913052828548    0.8209517426113879    0.2217926914207687     O004
    0.2380722018767737    0.3063776776569537    0.1029663302898658     O005
    0.7600093493412931    0.2329663589202260    0.8932703374003713     O006
