Na12 Fe2 O9
1.0
   5.9552159309387207    0.0000000000000000    0.5627409219741818
   0.1091389501191852    6.7724737655046470   -2.9646799564361577
   0.0000000000000000    0.0000000000000000    8.6402215957641602
Na Fe O
12 2 9
direct
   0.1896211653947830    0.0082355989143252    0.6928483247756958 Na
   0.2034967541694641    0.6816797256469727    0.2589570879936218 Na
   0.7766045928001404    0.5750286579132080    0.3192198574542999 Na
   0.3937586545944214    0.6325025558471681    0.5307936072349548 Na
   0.7736645340919495    0.9112307429313660    0.8694366812705994 Na
   0.1799954026937485    0.8767681717872621    0.9997539520263672 Na
   0.7823382019996643    0.0690334215760231    0.5106791853904724 Na
   0.8633483648300171    0.1701613217592240    0.2126122564077377 Na
   0.8783519268035889    0.3902442157268524    0.9119498133659363 Na
   0.3905167281627655    0.4527365863323212    0.7733808159828186 Na
   0.3447199761867523    0.2788652479648590    0.0934157893061638 Na
   0.3443572223186493    0.1720561683177948    0.3978735804557800 Na
   0.9695622324943544    0.4638995826244355    0.5739758014678955 Fe
   0.6141310930252075    0.8115910291671754    0.1820879429578781 Fe
   0.6600588560104370    0.4139626324176789    0.5295167565345764 O
   0.0825877562165260    0.7048043608665466    0.7293143272399902 O
   0.5210708379745483    0.5498760938644409    0.0430702306330204 O
   0.1138322576880455    0.4375501871109009    0.3591381907463074 O
   0.0257265418767929    0.1535242199897766    0.9679100513458252 O
   0.9180251359939576    0.8340056538581849    0.2120111584663391 O
   0.4863569736480713    0.8605701923370362    0.4144163429737091 O
   0.5133698582649231    0.0068232705816627    0.1148387193679810 O
   0.0768376141786575    0.2666468322277069    0.6352313160896301 O
