Generated by VASPKIT code
 1.000000
    5.8710882228772761   -0.0441139867005284   -0.8221992491431762
   -2.3525490793097976    6.9671711220579580   -2.0335897113150443
   -0.0500844504478528   -0.0140440417610703    7.3913612957925707
   Mg   Tl   O 
     1     3     9
Direct
    0.8643223507328129    0.1005866206635935    0.6275174758065640    Mg001
    0.8699714946690860    0.7761214582862072    0.8374092612489578    Tl001
    0.6523127245606571    0.0220446506428226    0.1826562651506720    Tl002
    0.0068250921535593    0.4600120573417882    0.4712236316030811    Tl003
    0.0329242226497873    0.1521350735624418    0.3937792948358946     O001
    0.2687498608182225    0.8965079245584363    0.0123039879606781     O002
    0.9689992138816046    0.8429486828812912    0.5915448607921796     O003
    0.8125842201681300    0.0790215951333460    0.9114415198574126     O004
    0.9054193155101651    0.4009520588842690    0.7343391049441472     O005
    0.3829169813011167    0.5888625623241625    0.5858048720771917     O006
    0.7133841915235746    0.7018925248850054    0.0616152290077854     O007
    0.5333204575492633    0.9865045046447461    0.4526821963112449     O008
    0.6561344540827247    0.3583424399214394    0.2719552198237157     O009
