Na9 Ag1 Ge4 S14
1.0
   6.9509119987487793    0.0000000000000000   -0.7749075293540951
  -1.7149090104389584    8.6506270157511977   -0.5584478378295907
   0.0000000000000000    0.0000000000000000   11.3046836853027344
Na Ag Ge S
9 1 4 14
direct
   0.6133226752281189    0.3840556144714355    0.4039432108402252 Na
   0.2405998557806015    0.8137528896331788    0.6201608180999756 Na
   0.8466693758964539    0.8829049468040466    0.1308606415987015 Na
   0.0916990637779236    0.3127017021179199    0.9558357000350953 Na
   0.1913227736949921    0.3327103555202485    0.6032672524452209 Na
   0.7389275431632996    0.9639061093330384    0.4806999564170838 Na
   0.1741662621498108    0.5718675255775453    0.2959220409393311 Na
   0.3014234900474548    0.7199913859367371    0.0009688823483884 Na
   0.5463218688964844    0.1331909149885178    0.7956722974777222 Na
   0.4072477221488953    0.1391560733318329    0.1440201848745346 Ag
   0.6314895153045654    0.6186574101448059    0.7357038855552673 Ge
   0.9357597827911377    0.9128059148788452    0.8176095485687256 Ge
   0.2507446110248566    0.9806174635887146    0.3715973198413849 Ge
   0.6618630886077881    0.4363180100917816    0.0334067419171333 Ge
   0.4257599115371704    0.1126756742596626    0.5356392860412598 S
   0.6184152364730835    0.8350023031234742    0.8583397865295410 S
   0.1681012958288193    0.9887743592262269    0.9534577727317812 S
   0.4775085151195526    0.6083744764328003    0.5538873672485352 S
   0.9589973688125610    0.2870324850082398    0.3818030059337616 S
   0.4434795677661896    0.4480309188365936    0.1585590392351151 S
   0.7241142392158508    0.1924117654561996    0.0328350029885769 S
   0.0018881291616708    0.8018793463706970    0.3980351388454437 S
   0.9601908326148987    0.6534448862075806    0.7482683062553406 S
   0.9381932616233826    0.5904774069786072    0.0670664981007576 S
   0.4764463305473328    0.4348436594009399    0.8426709771156311 S
   0.0867901220917702    0.1527889668941498    0.2698860168457031 S
   0.9288601279258728    0.1172979846596718    0.7109992504119873 S
   0.4470753073692322    0.8896992206573486    0.2529061138629913 S
