Na18 Fe3 S11 O1
1.0
   7.3398327827453613    0.0000000000000000   -0.1201575472950932
   0.0325072921314211    8.3848313572387578   -1.3817946910858154
   0.0000000000000000    0.0000000000000000   12.3455486297607422
Na Fe S O
18 3 11 1
direct
   0.4980088472366334    0.3380129039287567    0.6504828929901123 Na
   0.9103919863700868    0.4573911428451538    0.1228067055344582 Na
   0.5684756636619568    0.1862549334764481    0.1646341085433960 Na
   0.7685726284980775    0.7255108952522278    0.4207077324390412 Na
   0.5958181619644165    0.0999286621809006    0.4089606106281281 Na
   0.1581659466028214    0.0456214658915997    0.5470724105834961 Na
   0.2125711590051651    0.6502881646156311    0.9658293128013612 Na
   0.5503756999969482    0.7337090969085693    0.1589202731847763 Na
   0.1639144420623779    0.7668790817260742    0.2617898583412170 Na
   0.1866719871759415    0.1987178027629852    0.9926108717918397 Na
   0.5540590286254883    0.3600434362888336    0.9160377383232118 Na
   0.2493842691183090    0.6588039398193359    0.6038680076599121 Na
   0.0806240588426590    0.1896446049213409    0.2732430100440979 Na
   0.0689254105091095    0.3749444782733917    0.7433065772056581 Na
   0.9742666482925416    0.9693914055824281    0.7922875285148622 Na
   0.5739002227783203    0.9304273128509521    0.6459698081016541 Na
   0.4150597453117371    0.4925650656223297    0.3532293140888215 Na
   0.5087429881095886    0.9301426410675049    0.9166795015335084 Na
   0.7160089015960694    0.6405963897705078    0.7912009954452516 Fe
   0.9317409396171571    0.9296951889991760    0.0761622413992882 Fe
   0.9126811623573304    0.3856052160263062    0.5088105797767639 Fe
   0.8773996829986573    0.6501441001892090    0.6342949867248535 S
   0.8314291834831239    0.9206311106681824    0.2511467933654785 S
   0.3982401788234711    0.8214814662933350    0.4443004131317139 S
   0.8326101899147035    0.6731452941894531    0.9699538350105287 S
   0.3126614391803741    0.4605946838855743    0.1297208666801453 S
   0.2239220142364502    0.3345027863979340    0.4850068390369416 S
   0.3139466345310211    0.1225089803338051    0.7772574424743653 S
   0.7791976332664491    0.3980876505374908    0.3378293514251709 S
   0.2610452771186829    0.9493882656097412    0.1023027822375297 S
   0.8133361339569093    0.1409133523702621    0.9922167062759401 S
   0.8157539367675782    0.1779754459857941    0.6017522215843201 S
   0.4249843060970307    0.6111051440238953    0.7903633713722230 O
