K1 Na3 S3 N1 O12 F1
1.0
   5.6429924964904785    0.0000000000000000    0.3405758142471309
  -1.2720070324715216    6.6874073474525648    0.1945742964744570
   0.0000000000000000    0.0000000000000000    7.7943215370178223
K Na S N O F
1 3 3 1 12 1
direct
   0.5454293489456177    0.4808813929557800    0.5021375417709351 K
   0.1255142390727997    0.8535758852958680    0.7413847446441650 Na
   0.5129706263542175    0.2402994930744171    0.9629712104797362 Na
   0.1366111636161804    0.8091283440589906    0.2460254877805710 Na
   0.5798585414886475    0.7243645787239075    0.9971851110458373 S
   0.9798927903175354    0.2830653190612793    0.2261798381805420 S
   0.6809812188148499    0.9940928816795350    0.4963859319686889 S
   0.0964265093207359    0.3465749919414521    0.7405491471290588 N
   0.5363159775733948    0.6153160929679871    0.1637087315320969 O
   0.6881814002990723    0.1275657862424851    0.6360931396484375 O
   0.4349628984928131    0.8821444511413575    0.4794475734233856 O
   0.5703599452972412    0.5981793403625488    0.8471878170967102 O
   0.8918724060058594    0.3193692266941071    0.0613295920193195 O
   0.2064297646284103    0.2196918725967408    0.7485028505325317 O
   0.4269306063652039    0.8801111578941346    0.9822558164596557 O
   0.0180159695446491    0.4573872089385987    0.3313008546829224 O
   0.8611750602722168    0.8652763962745667    0.4921448528766632 O
   0.0675328224897385    0.5060093402862549    0.7017214894294739 O
   0.1783952414989471    0.1707317084074020    0.2194555252790451 O
   0.7328637242317200    0.1338880211114884    0.3177080154418945 O
   0.8545333743095398    0.8374040126800537    0.9999594092369078 F
