Sr3 Ti2 Nb1 O9                          
   1.00000000000000     
     3.8983185931174980   -0.0028468932825850    0.0124609534353049
     0.0114692237284418    5.8889080620087997   -0.2959959435327722
     0.0324199645351069   -0.1266965184596282   10.1273372156247561
   Sr   Ti   Nb   O 
     3     2     1     9
Direct
  0.3801995320789992  0.4300097680301236  0.7339682278784182
  0.8758915572959090  0.8991179762919476  0.9744514332843663
  0.3872469585402586  0.0672894778192031  0.3855719709125368
  0.8925576672395696  0.5555769524160489  0.3647133221692788
  0.8817495889938864  0.9654828944540049  0.6548618952456026
  0.3682694690768071  0.4358663040449755  0.1172340081388752
  0.8698625107748212  0.5203243153916435  0.1640652027666552
  0.8791598715506410  0.1776853427109679  0.7967812409726345
  0.3765485578564489  0.1148483500559759  0.1145492130619890
  0.3865329553830582  0.5459961560381438  0.3157785125751675
  0.8798717714274656  0.7115479422633338  0.7400614800580301
  0.3759213842839408  0.6164852569998063  0.9712013658156886
  0.3826646364232860  0.0225466282601670  0.6216310554536901
  0.8800848171583979  0.3236972895690090  0.4705158441603419
  0.8864236211989642  0.8362592362924052  0.4498230614524759
 
  0.00000000E+00  0.00000000E+00  0.00000000E+00
  0.00000000E+00  0.00000000E+00  0.00000000E+00
  0.00000000E+00  0.00000000E+00  0.00000000E+00
  0.00000000E+00  0.00000000E+00  0.00000000E+00
  0.00000000E+00  0.00000000E+00  0.00000000E+00
  0.00000000E+00  0.00000000E+00  0.00000000E+00
  0.00000000E+00  0.00000000E+00  0.00000000E+00
  0.00000000E+00  0.00000000E+00  0.00000000E+00
  0.00000000E+00  0.00000000E+00  0.00000000E+00
  0.00000000E+00  0.00000000E+00  0.00000000E+00
  0.00000000E+00  0.00000000E+00  0.00000000E+00
  0.00000000E+00  0.00000000E+00  0.00000000E+00
  0.00000000E+00  0.00000000E+00  0.00000000E+00
  0.00000000E+00  0.00000000E+00  0.00000000E+00
  0.00000000E+00  0.00000000E+00  0.00000000E+00
