Na6 Cu2 O4                              
   1.00000000000000     
     3.7902416177284866   -0.0086330457905402    0.0049422389028705
     0.0139015962347866    5.9510764869160724    0.0166327832728178
    -0.0110069887516464   -0.0158936172431565    7.5509142374102458
   Na   Cu   O 
     6     2     4
Direct
  0.3560547905594407  0.4649419433961918  0.6936165998542907
  0.8564263395527256  0.4539366263214967  0.4248662173342008
  0.3562983530988345  0.9588780375946820  0.1561872808602017
  0.3563017499106820  0.9594074385755323  0.6939017925166201
  0.8568588055542256  0.9716606845082927  0.4250778033422566
  0.3567875991459105  0.4645590538959556  0.1558909889181825
  0.8562416687786976  0.7119428199793036  0.9248873809336881
  0.8558283248936623  0.2117419247690085  0.9251008107021804
  0.3562406646957649  0.2124717284086249  0.4250097538776976
  0.8563515016969732  0.7119965556895207  0.1735880505617284
  0.3559391296338672  0.2120753450922708  0.9249099976770268
  0.8560597007236159  0.7119480974158252  0.6761572987513259
 
  0.00000000E+00  0.00000000E+00  0.00000000E+00
  0.00000000E+00  0.00000000E+00  0.00000000E+00
  0.00000000E+00  0.00000000E+00  0.00000000E+00
  0.00000000E+00  0.00000000E+00  0.00000000E+00
  0.00000000E+00  0.00000000E+00  0.00000000E+00
  0.00000000E+00  0.00000000E+00  0.00000000E+00
  0.00000000E+00  0.00000000E+00  0.00000000E+00
  0.00000000E+00  0.00000000E+00  0.00000000E+00
  0.00000000E+00  0.00000000E+00  0.00000000E+00
  0.00000000E+00  0.00000000E+00  0.00000000E+00
  0.00000000E+00  0.00000000E+00  0.00000000E+00
  0.00000000E+00  0.00000000E+00  0.00000000E+00
