Na5 Cr2 P3 O11 F2
1.0
   6.6421084403991699    0.0000000000000000   -0.6024270653724677
   0.2844268583837090    6.1464148064350237    1.5334751605987553
   0.0000000000000000    0.0000000000000000    7.6403417587280273
Na Cr P O F
5 2 3 11 2
direct
   0.1080915480852127    0.1582182794809341    0.6665772199630737 Na
   0.5630708932876587    0.6071682572364806    0.2097640037536621 Na
   0.3348389565944672    0.0747539922595024    0.2361168414354324 Na
   0.3193348050117493    0.6609746813774109    0.6306151151657104 Na
   0.8028017282485962    0.6579097509384154    0.5984889864921570 Na
   0.8164948821067810    0.8702358603477477    0.9249464869499207 Cr
   0.5866781473159790    0.3122041821479797    0.9092984795570374 Cr
   0.5825316905975342    0.1591680943965912    0.5445050001144409 P
   0.0765919014811516    0.6049950718879699    0.2891318202018738 P
   0.0705640316009522    0.4245261251926422    0.9638023972511292 P
   0.0298340655863285    0.6656649708747864    0.8599991798400879 O
   0.0966676622629166    0.4028627872467040    0.1798680126667023 O
   0.9026665687561035    0.2753909826278687    0.9284125566482544 O
   0.0522152148187160    0.4972850084304809    0.4843287765979767 O
   0.5695713758468628    0.3724787831306457    0.6196264028549194 O
   0.2705866992473602    0.3303119838237762    0.9166080355644226 O
   0.8847852349281311    0.7395136356353759    0.1949328333139420 O
   0.2652278542518616    0.7303842306137084    0.2651014029979706 O
   0.3930101394653320    0.0278022084385157    0.5725423693656920 O
   0.6103268265724182    0.2340660393238068    0.3413786590099335 O
   0.7705669403076172    0.0128594245761633    0.6514561176300049 O
   0.5709578394889832    0.0043015042319894    0.0066798240877688 F
   0.5947285890579223    0.6128425598144531    0.8938248157501221 F
