Cs1 Na2 Tl1 Br6                         
   1.00000000000000     
     7.4868674239039352   -0.0019737392796075    4.3100530506709145
     2.5024118377687787    7.0629396018880080    4.2997236366021481
    -0.0094621861673752    0.0106773241407377    8.6545322628190675
   Cs   Na   Tl   Br
     1     2     1     6
Direct
  0.4651243508457160  0.6221608017913932  0.6541400612977373
  0.2153697854750986  0.3718904373523650  0.4048145385495848
  0.7157831149253728  0.8722440691441548  0.9039430980023387
  0.9656006533327548  0.1220856188612092  0.1540421314383747
  0.1923052420501183  0.8965188474948770  0.3796767892638616
  0.7385202196237952  0.3485191168705952  0.9279729129862199
  0.7391835793280749  0.3483078350260091  0.3810610861049152
  0.1924077343307544  0.3480351144973908  0.9280554297775568
  0.7389801153619436  0.8957432923112812  0.3806715051353334
  0.1920501555406187  0.8957660537177564  0.9276817050706111
 
  0.00000000E+00  0.00000000E+00  0.00000000E+00
  0.00000000E+00  0.00000000E+00  0.00000000E+00
  0.00000000E+00  0.00000000E+00  0.00000000E+00
  0.00000000E+00  0.00000000E+00  0.00000000E+00
  0.00000000E+00  0.00000000E+00  0.00000000E+00
  0.00000000E+00  0.00000000E+00  0.00000000E+00
  0.00000000E+00  0.00000000E+00  0.00000000E+00
  0.00000000E+00  0.00000000E+00  0.00000000E+00
  0.00000000E+00  0.00000000E+00  0.00000000E+00
  0.00000000E+00  0.00000000E+00  0.00000000E+00
