Na2 Au2 O2
1.0
   3.9976737499237061    0.0000000000000000   -0.0256485007703303
  -0.0106913738801581    3.4561246968299408    0.0131885763257736
   0.0000000000000000    0.0000000000000000    6.7677254676818848
Na Au O
2 2 2
direct
   0.2755132317543030    0.6680876016616821    0.5925151705741882 Na
   0.2752918303012848    0.6684435009956360    0.0950820744037628 Na
   0.7755405306816102    0.1679547280073166    0.8431588411331178 Au
   0.7761065363883973    0.1686330437660217    0.3441438674926758 Au
   0.2761629521846771    0.1687355935573578    0.3420971035957336 O
   0.2748844623565674    0.1681702733039856    0.8417121171951295 O
