Na16 Fe3 O14
1.0
   5.8140759468078613    0.0000000000000000   -0.3691249191761012
  -0.3356699233260889    6.8197570672280658   -1.0543333292007464
   0.0000000000000000    0.0000000000000000   11.6769847869873047
Na Fe O
16 3 14
direct
   0.1386105269193649    0.5093951225280762    0.6658774018287659 Na
   0.8389056921005249    0.9040358662605286    0.5249791741371155 Na
   0.7355564832687378    0.0494241826236248    0.7913925051689148 Na
   0.7160511016845703    0.7028546929359436    0.1983442753553391 Na
   0.5320138931274414    0.8735541701316833    0.9883052110671998 Na
   0.8787358403205872    0.0743348225951195    0.3285674750804901 Na
   0.9591946601867676    0.1168501004576683    0.0747582763433456 Na
   0.2957495450973511    0.8584012985229492    0.2534387409687042 Na
   0.2177927643060684    0.1044939905405045    0.6699116230010986 Na
   0.3285177648067474    0.7361547350883484    0.4731260240077973 Na
   0.3046967983245850    0.2717932462692261    0.4374942779541016 Na
   0.7639244198799133    0.5079748034477234    0.4203382432460785 Na
   0.9841352701187134    0.5008226633071899    0.9462495446205140 Na
   0.6433638334274292    0.6578482985496521    0.7533147931098938 Na
   0.4684146642684937    0.3597083687782288    0.9177705049514772 Na
   0.0692589730024338    0.4739806056022645    0.2290339767932892 Na
   0.1398256570100784    0.8425707221031189    0.8359541893005371 Fe
   0.6851601600646973    0.2913067042827606    0.6058498620986938 Fe
   0.4663451015949249    0.2848248779773712    0.1745368391275406 Fe
   0.4636223316192627    0.5238280296325684    0.2884931266307831 O
   0.7829365730285645    0.3453957140445709    0.7602255344390869 O
   0.9888424873352051    0.7567107081413269    0.3583540916442871 O
   0.9908146262168884    0.8278874158859253    0.6909192800521851 O
   0.9485183954238892    0.2638743817806244    0.5205194354057312 O
   0.8940519690513611    0.8371518850326538    0.9269690513610841 O
   0.6065909862518311    0.0284468363970518    0.1748772263526917 O
   0.3058899641036987    0.6293185353279115    0.8548844456672668 O
   0.5069038867950439    0.4979561269283295    0.5698460936546326 O
   0.2112162262201309    0.1724378168582916    0.2464768588542939 O
   0.7177428603172302    0.3825196027755737    0.0995538681745529 O
   0.2463988661766052    0.3722614645957947    0.0700665935873985 O
   0.5114591717720032    0.0606398060917854    0.5485401749610901 O
   0.3674228787422180    0.0289418045431376    0.8426334261894226 O
