Na3 Cu1 C3 S1 O12
1.0
   5.8713488578796387    0.0000000000000000    0.9469997286796553
   1.2411221190134119    5.4086207997807385   -0.3373472690582270
   0.0000000000000000    0.0000000000000000    8.5843992233276367
Na Cu C S O
3 1 3 1 12
direct
   0.4607103765010833    0.9345113635063171    0.4297261834144592 Na
   0.5878784656524658    0.3435381054878235    0.0421320758759976 Na
   0.9806623458862304    0.7499554753303528    0.0777954906225204 Na
   0.9509159326553344    0.4815318286418915    0.6132314205169678 Cu
   0.6120362877845764    0.7945909500122071    0.7917653322219849 C
   0.2533189356327057    0.5366764068603516    0.3435603678226471 C
   0.7811642885208130    0.2932602763175964    0.3396063446998596 C
   0.1967910826206207    0.1787556707859039    0.8460072278976440 S
   0.7675579786300659    0.0910452082753181    0.2571290731430054 O
   0.7715891003608704    0.5023938417434692    0.2736423313617706 O
   0.6624134778976440    0.7792332172393799    0.6442091464996338 O
   0.2385293245315551    0.3996753692626953    0.9228985309600830 O
   0.2859591245651245    0.6880940794944763    0.2358025759458542 O
   0.2886794507503510    0.3008617460727692    0.3050786554813385 O
   0.7296588420867920    0.6427391767501831    0.8740652203559875 O
   0.7871518731117249    0.2745077908039093    0.4947859942913055 O
   0.4212402105331420    0.9715746641159058    0.8754147887229919 O
   0.9964922666549682    0.0934183597564697    0.9185861349105835 O
   0.1814713031053543    0.6353355050086975    0.4921619594097137 O
   0.2033931016921997    0.1939109414815903    0.6751240491867065 O
