Generated by VASPKIT code
 1.000000
    6.4392776489257812    0.0000000000000000    0.1475716680288309
    0.0289823182962182    6.2902283561825580   -0.0129114110022790
    0.0000000000000000    0.0000000000000000    7.0019149780273438
   Zr   W    O 
     1     2    11
Direct
    0.5958455204963684    0.9182590842247009    0.3784487843513489    Zr001
    0.6946074962615967    0.3154703378677368    0.5886178612709045     W001
    0.1778639405965805    0.7623485326766967    0.1411848366260529     W002
    0.9737545847892761    0.3762491941452026    0.6280707716941835     O001
    0.4220966696739197    0.1868055462837219    0.5170668363571167     O002
    0.4866003096103668    0.8359736800193787    0.0991934090852738     O003
    0.6260696649551392    0.5968999862670898    0.4875986874103547     O004
    0.7340735793113708    0.9901914000511169    0.6437911391258241     O005
    0.6055683493614197    0.3729994595050811    0.8429121375083924     O006
    0.2647307217121124    0.8286905884742737    0.3988070785999299     O007
    0.1824259608983994    0.4733756184577942    0.0917216911911965     O008
    0.1352339684963226    0.9030344486236572    0.9086111783981324     O009
    0.8956199884414673    0.8042007088661194    0.2280283123254777     O010
    0.7559574246406555    0.2041727006435394    0.3085781037807465     O011
