K7 Na9 Sn4 Sb8
1.0
   8.8027105331420898    0.0000000000000000    0.4314962327480307
   2.0110811473134595    9.4439923929431746    0.0634074881672857
   0.0000000000000000    0.0000000000000000   11.7235794067382812
K Na Sn Sb
7 9 4 8
direct
   0.3363085687160492    0.2884319126605988    0.0960125103592873 K
   0.1777464896440506    0.9346825480461122    0.1774390786886215 K
   0.0328588597476482    0.2684798538684845    0.3800494372844697 K
   0.9956294298171997    0.5552736520767213    0.6489000916481018 K
   0.9329054355621338    0.5844018459320068    0.0858960822224617 K
   0.6965102553367615    0.9505554437637329    0.1497818827629089 K
   0.0380407683551311    0.8859639167785645    0.8411824703216554 K
   0.3306639790534973    0.1331160962581635    0.6302007436752319 Na
   0.4381797909736633    0.7056021094322205    0.6758625507354736 Na
   0.4013993442058563    0.6503627300262451    0.9817329645156861 Na
   0.6610344052314758    0.1275790333747864    0.8464303016662599 Na
   0.6120524406433105    0.3399318158626556    0.5716296434402466 Na
   0.7364178895950317    0.9309593439102174    0.5709836483001709 Na
   0.6720269322395325    0.3465106785297394    0.2427531629800797 Na
   0.7171724438667297    0.4331889748573303    0.8646638989448548 Na
   0.3061366975307465    0.5312281250953674    0.3907155096530915 Na
   0.1334769725799561    0.2227938026189804    0.8585547208786012 Sn
   0.3877154588699341    0.9699583649635315    0.9003239870071412 Sn
   0.4333626031875610    0.8760851621627808    0.4155371487140656 Sn
   0.6967873573303223    0.6146966218948364    0.4252822697162629 Sn
   0.6890817284584045    0.7754282355308533    0.8460587859153749 Sb
   0.9212328791618347    0.2238626182079315    0.0496568046510220 Sb
   0.9721300005912781    0.7262312173843384    0.3654726743698121 Sb
   0.5148345828056335    0.6638763546943665    0.2304430007934571 Sb
   0.9485691189765930    0.1758713722229004    0.6559274792671204 Sb
   0.4694774746894836    0.1689562648534775    0.3736560642719269 Sb
   0.1201791614294052    0.8872054219245912    0.5256007909774780 Sb
   0.3489915132522583    0.4162956178188325    0.8026165366172792 Sb
