Na3 Mg1 Fe1 O4
1.0
   5.5325074195861808    0.0000000000000000    0.3507952690124513
  -0.0085139209882530    3.3471371134202528    0.0009423180599696
   0.0000000000000000    0.0000000000000000    6.6366715431213379
Na Mg Fe O
3 1 1 4
direct
   0.7754653096199036    0.9849298596382142    0.7508290410041809 Na
   0.9877483844757080    0.9905644059181213    0.3878155648708344 Na
   0.1885234564542770    0.9950038790702820    0.0269208401441574 Na
   0.6305382847785950    0.4893251061439515    0.2074784487485886 Mg
   0.3521273732185364    0.4911841750144958    0.5596795678138733 Fe
   0.2208127975463867    0.9888308048248292    0.6825629472732544 O
   0.7593961954116821    0.9899134635925294    0.0900402441620827 O
   0.6995936632156372    0.4874378442764282    0.5112534165382385 O
   0.2751708626747131    0.4919165968894958    0.2660170197486877 O
