Na1 Cu1 H3 Se3 O12
1.0
   5.0499043464660645    0.0000000000000000   -1.4272428750991819
  -2.2528892170895030    7.1595701366530120   -0.7421041131019600
   0.0000000000000000    0.0000000000000000    7.5350375175476074
Na Cu H Se O
1 1 3 3 12
direct
   0.1376123428344727    0.5518309473991394    0.6918076276779174 Na
   0.9225792288780214    0.7964344620704651    0.2968763113021851 Cu
   0.5924621820449829    0.4474342465400696    0.9107861518859862 H
   0.5541119575500488    0.3600087463855744    0.7050689458847045 H
   0.0442956052720547    0.8690494894981385    0.9933172464370726 H
   0.4960959553718567    0.1533655077219009    0.3601290881633758 Se
   0.6472005844116211    0.0083685852587223    0.9875693917274474 Se
   0.2845915853977203    0.4807631969451904    0.1983098834753036 Se
   0.2871842086315155    0.2412407249212265    0.2039139866828918 O
   0.6928476095199585    0.0700173154473305    0.2442277222871780 O
   0.2849134206771851    0.9792888760566711    0.4185543954372405 O
   0.2235718965530396    0.5563246011734009    0.3831049799919128 O
   0.6092473864555359    0.5789868831634523    0.1913788467645645 O
   0.4611937105655671    0.3980002999305725    0.7903458476066588 O
   0.8674157857894899    0.7819837927818298    0.5524400472640991 O
   0.8783968687057496    0.8645549416542053    0.0440600290894508 O
   0.3318716287612916    0.8548594713211061    0.9131980538368224 O
   0.7365333437919617    0.8575035929679872    0.6345469355583190 O
   0.0552942976355553    0.4640104770660400    0.9995511174201964 O
   0.7074251770973206    0.3061181008815765    0.5402336716651917 O
