Na1 Fe3 Sb1 O6
1.0
   4.9559483528137207    0.0000000000000000   -2.1713094711303706
   2.0021313714495927    4.5408939854661057   -2.2053613662719727
   0.0000000000000000    0.0000000000000000    6.7120776176452637
Na Fe Sb O
1 3 1 6
direct
   0.4039601981639862    0.3148907721042633    0.7320618033409119 Na
   0.9842044711112975    0.8980290293693542    0.4729293286800383 Fe
   0.8355333805084229    0.7432900071144104    0.0188191942870616 Fe
   0.2344330102205276    0.1436198800802231    0.2188552469015121 Fe
   0.5777869820594788    0.4887891113758087    0.2533441781997681 Sb
   0.9742432236671447    0.5172345638275146    0.4353958368301391 O
   0.4888246357440948    0.7337626814842225    0.0485395379364491 O
   0.6046018004417419    0.2498026937246323    0.4367270171642303 O
   0.8235580325126648    0.1259183734655380    0.0466307848691940 O
   0.3355603516101837    0.8855577707290649    0.4348032772541046 O
   0.2168120145797729    0.3950450718402863    0.0457538515329361 O
