Na6 V1 P4 O15
1.0
   5.2306904792785645    0.0000000000000000   -1.4511169195175171
   0.0976640035065245    7.0532112354761889    0.7364429235458376
   0.0000000000000000    0.0000000000000000    9.3447837829589844
Na V P O
6 1 4 15
direct
   0.1391916126012802    0.7272742986679077    0.6101788878440857 Na
   0.2759556174278259    0.9128773808479309    0.9627009630203247 Na
   0.7232562303543091    0.6346858739852906    0.9502546787261963 Na
   0.7485370039939880    0.1792469322681427    0.9951688051223755 Na
   0.4115243852138519    0.1692699193954468    0.2495716065168381 Na
   0.5841695070266724    0.4464994966983796    0.5924388170242310 Na
   0.1002418398857117    0.1808706521987915    0.5400670766830444 V
   0.9101182818412781    0.8849727511405946    0.2563340663909912 P
   0.9315775036811829    0.4493944942951203    0.3147314488887787 P
   0.6588077545166016    0.9504889249801636    0.6761308312416077 P
   0.1565976291894913    0.4046454131603241    0.8481960296630859 P
   0.9278855919837952    0.6669873595237732    0.3480349779129028 O
   0.8702495694160461    0.4022576212882996    0.8303050994873047 O
   0.5935494899749756    0.7635058164596558    0.6093299984931946 O
   0.1907475739717483    0.3696675300598145    0.6825720667839050 O
   0.6377372145652771    0.9337188005447389    0.1791897267103195 O
   0.8226901888847351    0.4288161695003510    0.1558328568935394 O
   0.4620863497257233    0.1065786778926849    0.5855611562728882 O
   0.2072954177856445    0.3766208887100220    0.3866279423236847 O
   0.2700860202312469    0.6014896035194397    0.8736961483955383 O
   0.2974696755409241    0.2498740553855896    0.9624804854393005 O
   0.9372309446334839    0.0169204417616129    0.6651616692543030 O
   0.6620519757270813    0.9384376406669617    0.8397194743156433 O
   0.7939219474792480    0.3369288742542267    0.4230707287788391 O
   0.0275673456490040    0.9924858212471009    0.3979592621326446 O
   0.0742990970611572    0.8985638618469238    0.1505143046379089 O
