Generated by VASPKIT code
 1.000000
    7.0656463799768616    0.2995732914065579   -0.8266159482435298
   -1.4012295589961461    8.6312195918543910   -0.7923583632741974
   -0.0374570095817485   -0.2942561273445753   11.7385650787437363
   Ag   Ge   S 
     1     4    14
Direct
    0.4888016391161962    0.1433004491204898    0.1428748085387428    Ag001
    0.6210316071064464    0.6244919662817304    0.7374288084904153    Ge001
    0.9383526157009134    0.8985328934083705    0.8252113090483395    Ge002
    0.2538558276298040    0.0075308958544621    0.3676095930194603    Ge003
    0.6722055190796187    0.4223786229009975    0.0211259094910383    Ge004
    0.4202144941038077    0.1140364642185331    0.5349047985652469     S001
    0.6174818328855800    0.8492723810364473    0.8520015955083833     S002
    0.1453387254830023    0.9575313988590256    0.9802906463725354     S003
    0.4434941533205972    0.5953546785540880    0.5703296551108770     S004
    0.9406284914271051    0.2877350122871257    0.4121682228420144     S005
    0.4506772044244660    0.4365391367184881    0.1415014599389079     S006
    0.7326575188343339    0.1804215347917521    0.0011975676362340     S007
    0.0158986642130426    0.8305092596599067    0.3775727726959189     S008
    0.9416769230340679    0.6455900485040621    0.7365530554430166     S009
    0.9265197639089207    0.5880802498764371    0.0633834089345223     S010
    0.4967826296155426    0.4383036585193501    0.8373748437182522     S011
    0.1134295470278514    0.2080760546797747    0.2899975662842772     S012
    0.9640369904789410    0.0629859828040827    0.6988211775735759     S013
    0.4555055121421490    0.9250928848053698    0.2496646980074780     S014
