Na5 Ti1 Al1 Si6 O18
1.0
   7.6605901718139648    0.0000000000000000   -1.0462571382522594
  -0.0617213745333358    5.3735464314765080    0.1620235592126851
   0.0000000000000000    0.0000000000000000    9.5429506301879883
Na Ti Al Si O
5 1 1 6 18
direct
   0.8300534486770630    0.2783694863319397    0.9086524844169617 Na
   0.1245700791478157    0.8728442192077637    0.1490650773048401 Na
   0.4465024769306183    0.2369516342878342    0.6612650752067566 Na
   0.7707802653312683    0.4750556349754333    0.3112677335739136 Na
   0.0204873755574226    0.9597378969192505    0.4563355743885040 Na
   0.1269423514604568    0.9207557439804077    0.8030565977096558 Ti
   0.4632212519645691    0.8443537950515747    0.4010463953018188 Al
   0.2152316719293594    0.4159439206123353    0.0056701288558543 Si
   0.0486230291426182    0.4603918492794037    0.5911378860473633 Si
   0.2523659765720367    0.3554906845092773    0.3470585346221924 Si
   0.7353386282920837    0.7442750930786133    0.6666666666666666 Si
   0.7100147008895874    0.9496453404426574    0.1612972170114517 Si
   0.5136935114860535    0.6989582180976868    0.8973554372787476 Si
   0.0688769891858101    0.4134676754474640    0.4214204847812653 O
   0.6681401729583740    0.8009899258613588    0.0105510540306568 O
   0.8830952048301697    0.8440284132957458    0.2461000233888626 O
   0.3823323845863342    0.9147947430610658    0.8314493894577026 O
   0.4125441312789917    0.4566753208637238    0.9603369832038879 O
   0.7357714176177979    0.2403183728456497    0.1244027540087700 O
   0.1309878230094910    0.2150808870792389    0.6720499396324158 O
   0.8346547484397888    0.5185810327529907    0.5870820283889771 O
   0.2869650423526764    0.0560629479587078    0.3763388991355896 O
   0.1265881061553955    0.1502893865108490    0.9594250917434692 O
   0.6071584820747375    0.9085989594459535    0.5500695109367371 O
   0.4042755365371704    0.5244439840316772    0.4254606664180756 O
   0.0978455245494843    0.6438292860984802    0.9359338283538821 O
   0.8736277818679810    0.9272659420967102    0.7549362778663635 O
   0.5439048409461975    0.8780481219291687    0.2425533235073090 O
   0.2173350751399994    0.4300061166286469    0.1815326213836670 O
   0.1476315110921860    0.7087579965591431    0.6427459716796875 O
   0.6168419122695923    0.5811262726783752    0.7704569101333618 O
