Na4 V1 S4
1.0
   5.8975501060485849    0.0000000000000000   -0.0350986756384371
  -2.9709521005908197    5.8079938677608247   -2.9898593425750732
   0.0000000000000000    0.0000000000000000    5.9754452705383301
Na V S
4 1 4
direct
   0.0959422141313553    0.0783808156847954    0.6346552968025208 Na
   0.6828204989433289    0.0802980065345764    0.2246008068323135 Na
   0.4050444662570953    0.5233645439147949    0.3558925986289978 Na
   0.8161751031875610    0.5240712165832520    0.9477970600128174 Na
   0.2507893443107605    0.8008347153663634    0.7922946214675903 V
   0.9181277155876160    0.5723729133605957    0.4589547812938690 S
   0.3510947227478027    0.5685229897499084    0.8906257152557373 S
   0.5833871960639954    0.0318643599748611    0.6912145018577576 S
   0.1507469713687897    0.0317537225782871    0.1216358989477158 S
