Na10 Tl2 Si2 O10
1.0
   5.6557512283325195    0.0000000000000000    1.5467808246612542
   2.0679842011408294    5.4828282380880289    0.9610382318496709
   0.0000000000000000    0.0000000000000000   11.5660152435302734
Na Tl Si O
10 2 2 10
direct
   0.8539952635765076    0.7166351079940795    0.1718232333660125 Na
   0.7015585899353028    0.2893811464309692    0.1534795165061950 Na
   0.1419716477394104    0.4304581284523010    0.6347004175186157 Na
   0.4998416900634766    0.1584673672914505    0.4392117857933044 Na
   0.6974009871482849    0.6392596364021301    0.4822086095809937 Na
   0.3671810030937195    0.4708209037780762    0.0060979570262134 Na
   0.0502354092895985    0.9077137708663939    0.5494925379753113 Na
   0.0230767801403999    0.1200744286179543    0.9195996522903442 Na
   0.3337296545505524    0.9808506369590759    0.0756706967949867 Na
   0.0859016776084900    0.3074999451637268    0.3034225404262543 Na
   0.6295970678329469    0.2448363751173019    0.7477588653564453 Tl
   0.8476462364196777    0.7014450430870056    0.9064621329307556 Tl
   0.3850727379322052    0.8619103431701659    0.7165178656578064 Si
   0.3428989648818969    0.6521108746528625    0.3278771340847015 Si
   0.2852947711944581    0.6364604234695435    0.1912913769483566 O
   0.6987200379371643    0.0239931233227253    0.0292107202112675 O
   0.1414540261030197    0.5459545850753784    0.4364071488380432 O
   0.6161806583404541    0.9531129002571106    0.6238400936126709 O
   0.1067021414637566    0.0835153460502625    0.7126420140266418 O
   0.6441839933395386    0.4663132429122925    0.3300164639949799 O
   0.4180669486522676    0.8000797033309937    0.8613550662994385 O
   0.3874407410621643    0.6236551403999329    0.6590319871902466 O
   0.3214277029037476    0.9328653216361998    0.3566243648529053 O
   0.0286293067038059    0.3829562067985535    0.0387481302022934 O
