Na12 Cd10 O16
1.0
   7.1105685234069815    0.0000000000000000    1.4281733036041266
  -2.4537659064512232    7.7994356254849642   -0.9788058996200566
   0.0000000000000000    0.0000000000000000   10.8671178817749023
Na Cd O
12 10 16
direct
   0.7687014341354370    0.1028405204415321    0.4044909477233887 Na
   0.3455193936824799    0.5168415904045105    0.2129874080419540 Na
   0.8692988753318788    0.7083498835563661    0.6942325830459595 Na
   0.0795545205473900    0.4026059806346894    0.5245184898376465 Na
   0.4721748232841492    0.2964205145835876    0.0007672004867345 Na
   0.3463389277458191    0.8667925000190736    0.3796663284301758 Na
   0.6240624785423279    0.3079933822154999    0.6249648332595825 Na
   0.7839372754096985    0.7650087475776673    0.2160153985023499 Na
   0.3050360977649689    0.9262670874595643    0.8092029690742493 Na
   0.5479464530944824    0.0347032882273197    0.1029718443751335 Na
   0.8124225139617920    0.3467413485050201    0.1846314072608948 Na
   0.6656559705734253    0.6805170178413392    0.9533531069755554 Na
   0.7538174390792847    0.0300567373633385    0.7544477581977844 Cd
   0.1597490012645722    0.7183632254600526    0.0541377477347851 Cd
   0.9887859225273132    0.0690447390079498    0.9856404662132263 Cd
   0.4394993185997009    0.7441423535346986    0.5656387805938721 Cd
   0.4935062527656555    0.3845921754837037    0.4052925705909729 Cd
   0.9367856383323671    0.6559834480285646    0.4126783907413483 Cd
   0.3805480301380158    0.5069246292114259    0.7992981076240540 Cd
   0.9020214080810547    0.4225086569786072    0.8808366656303406 Cd
   0.1423955261707306    0.0790129825472832    0.2437650710344315 Cd
   0.1979121416807175    0.0900993347167969    0.5990176796913147 Cd
   0.3438550233840942    0.3825912475585938    0.6117171645164490 O
   0.3440379500389099    0.5445275306701661    0.0068216035142541 O
   0.6823939681053162    0.4664529561996461    0.7962782382965088 O
   0.5261050462722778    0.6621028184890748    0.3680152297019958 O
   0.4410952627658845    0.2607589960098267    0.2227059304714203 O
   0.7943944931030273    0.3924608826637269    0.4186538457870483 O
   0.5411779880523682    0.7789726853370668    0.7448815703392029 O
   0.7536073923110962    0.1645831763744355    0.9370091557502747 O
   0.8459690213203430    0.0536498241126537    0.1811347454786301 O
   0.0658393725752831    0.1271630078554154    0.4497328102588654 O
   0.0211182162165642    0.9759476780891420    0.7812468409538269 O
   0.4844890534877777    0.0290091112256050    0.5566299557685852 O
   0.2522619366645813    0.0042493185028434    0.0167705584317446 O
   0.1248530372977257    0.6946989893913270    0.5438927412033081 O
   0.8542792797088623    0.5760142207145691    0.0508111231029034 O
   0.1161625310778618    0.7908660173416139    0.2575013041496277 O
