Na12 Fe2 O9
1.0
   5.6172580718994132    0.0000000000000000   -1.4935755729675289
  -4.5408946313864087    8.2778013162739335   -0.7871808409690880
   0.0000000000000000    0.0000000000000000    8.2113361358642578
Na Fe O
12 2 9
direct
   0.5011443495750427    0.3960034549236298    0.3217883706092834 Na
   0.7090710997581482    0.5325596928596497    0.7229234576225281 Na
   0.6874212026596069    0.1519242823123932    0.1798147857189178 Na
   0.5442320704460144    0.9595429301261902    0.4392748475074768 Na
   0.6278255581855773    0.9973377585411071    0.7998956441879272 Na
   0.8050723075866699    0.7351775765419005    0.3171781599521636 Na
   0.1287973821163177    0.8287330269813536    0.0538319945335388 Na
   0.2750502824783325    0.1464448273181915    0.5088440179824829 Na
   0.0391454882919788    0.5013322234153748    0.0920205116271973 Na
   0.3192512691020966    0.6580106019973755    0.5251792073249817 Na
   0.4668894708156585    0.6552538871765136    0.9562660455703735 Na
   0.3252354860305786    0.2813558876514435    0.9261419177055359 Na
   0.9805209040641785    0.3089591264724731    0.6019139289855957 Fe
   0.0605999827384949    0.9374988675117493    0.7316199541091919 Fe
   0.6399248242378235    0.2242219746112823    0.4261197149753571 O
   0.9739299416542053    0.1098143234848976    0.6694825291633606 O
   0.6637465953826904    0.5105245709419250    0.1055995225906372 O
   0.3618538677692413    0.0419244915246964    0.9381846785545349 O
   0.7541339993476868    0.7886956334114075    0.7809515595436096 O
   0.1880803406238555    0.8754941821098327    0.5659028291702271 O
   0.2734723985195160    0.3991199433803558    0.5143003463745117 O
   0.0294485092163086    0.4466920495033264    0.7987177968025208 O
   0.4094691574573516    0.7500995397567748    0.2269263416528702 O
