Na1 Mn1 Cu1 Se2
1.0
   3.7577910423278809    0.0000000000000000   -1.1129372119903560
  -0.2889605513099454    3.7670837313685492   -1.1015805006027222
   0.0000000000000000    0.0000000000000000    6.9801359176635742
Na Mn Cu Se
1 1 1 2
direct
   0.1849249899387360    0.8189080357551576    0.7632982134819031 Na
   0.4351006448268891    0.5691757202148438    0.2638657391071320 Mn
   0.9347003698349000    0.0685336962342262    0.2638933658599854 Cu
   0.8256671428680421    0.4602159559726716    0.0446427240967751 Se
   0.5444893240928650    0.1784154921770096    0.4841507673263550 Se
