Generated by VASPKIT code
 1.000000
    5.7244923338766673    0.0278030521630381   -0.3098475220525825
   -2.5562661355025194    5.8246122382952459   -1.7703445981512906
   -0.0677528671549593   -0.0404557044445120    8.1554046314053519
   Zn   O 
     1     6
Direct
    0.5863228615933644    0.2441451794301177    0.8191891891394937    Zn001
    0.4296421889351449    0.3034926706009272    0.0448363945741901     O001
    0.3649724918638566    0.2617445831436735    0.6192608070313935     O002
    0.9818225411523008    0.5055835444748275    0.4015616962554359     O003
    0.6081821885697987    0.9293223488657154    0.7886374638591571     O004
    0.9430316419036102    0.5156683802285683    0.8777313287035019     O005
    0.5597874857645962    0.8993336069391056    0.2363775982743373     O006
