Na2 Si3 Bi2 O10
1.0
   5.5093479156494141    0.0000000000000000    0.7381687164306625
  -1.6726304615613108    6.4383834119809293    1.8352805376052856
   0.0000000000000000    0.0000000000000000    7.0748353004455566
Na Si Bi O
2 3 2 10
direct
   0.2842521369457245    0.7148722410202027    0.7383236289024354 Na
   0.6074059605598450    0.7405533790588379    0.1396432220935822 Na
   0.8630335330963135    0.9122943878173829    0.6248595714569092 Si
   0.0913113951683044    0.6715449690818787    0.3355326652526856 Si
   0.6819070577621460    0.4349136054515839    0.9064045548439027 Si
   0.1424341350793839    0.1427771747112274    0.9956371784210206 Bi
   0.4740247130393982    0.2847890555858612    0.4650036990642548 Bi
   0.6555686593055725    0.0100640328601003    0.5222433209419252 O
   0.0477674528956413    0.8388962745666504    0.4626280069351197 O
   0.8184573054313660    0.5271245837211609    0.3396973907947541 O
   0.5110719203948975    0.3079648017883301    0.7798249721527101 O
   0.2924153804779053    0.5557850003242493    0.4325892329216004 O
   0.7005851864814758    0.6951620578765870    0.8141173124313356 O
   0.2203944474458694    0.8188775181770325    0.1047968342900276 O
   0.0620339103043079    0.0465554408729076    0.7199678421020509 O
   0.4805169701576233    0.3490481376647949    0.1150534152984619 O
   0.9599542021751404    0.4050301015377045    0.9008195400238038 O
