Generated by VASPKIT code
 1.000000
    3.8456725264435629    0.0032091986700312    0.6800647474138537
    0.1194771381868697    3.8423758360363989   -0.6899786748784694
   -0.0143220571427009    0.0243385451479420   11.1361492787288245
   Nd   Ta   O 
     1     2     7
Direct
    0.0783270319355993    0.8365410474741021    0.5150594663468708    Nd001
    0.4767358979398176    0.4398630379239939    0.7230042839256048    Ta001
    0.6810045085740183    0.2334059760237756    0.3069236646838464    Ta002
    0.5795828435549776    0.3365877399900117    0.5151086263595781     O001
    0.4977323650719662    0.9193419176738460    0.6817453775577986     O002
    0.6616024755920997    0.7529891257757292    0.3463297614567213     O003
    0.3937929745668954    0.5231994399377651    0.8903692304823618     O004
    0.9964064387040851    0.4202274821585811    0.6837712233608806     O005
    0.1608137932812145    0.2547594714583657    0.3483614536987705     O006
    0.7649316111092502    0.1489420199389686    0.1396229689725886     O007
