Na17 Mg1 Fe5 O17
1.0
   6.2084946632385254    0.0000000000000000    0.5793337225913995
   0.6044011975074967    6.7788002239964653    0.1405825614929206
   0.0000000000000000    0.0000000000000000   13.9359197616577148
Na Mg Fe O
17 1 5 17
direct
   0.2838891446590424    0.2909142374992371    0.8924301266670227 Na
   0.3963591754436493    0.1673610061407089    0.3911261856555939 Na
   0.2395770102739334    0.5007771253585815    0.5349174141883850 Na
   0.9516665935516356    0.7414284348487854    0.6547901630401611 Na
   0.2802290320396423    0.0754109397530556    0.1963227242231369 Na
   0.9578144550323485    0.4573472738265991    0.3731001019477844 Na
   0.0856474265456200    0.6617900133132935    0.1837369203567505 Na
   0.2180202156305313    0.7752825021743774    0.9295172691345215 Na
   0.6245014667510986    0.7025157213211060    0.5120337605476379 Na
   0.7812134623527527    0.2200479805469513    0.2378447800874710 Na
   0.5052512884140015    0.4616965353488922    0.1188467517495155 Na
   0.7473629713058472    0.2493844032287597    0.5561096668243408 Na
   0.4684735536575317    0.9927968382835387    0.7325491309165955 Na
   0.9406906962394713    0.1234750598669052    0.0322470217943192 Na
   0.7421899437904358    0.5615483522415161    0.8932411074638367 Na
   0.6769835948944092    0.8520351052284241    0.2225833833217621 Na
   0.1801480799913406    0.0355192683637142    0.5949733257293701 Na
   0.7957257628440857    0.0310001466423273    0.8527998328208923 Mg
   0.5623244643211365    0.9305781126022339    0.0199886802583933 Fe
   0.0797244459390640    0.9111049771308899    0.3899902701377869 Fe
   0.9762433767318724    0.3070753514766693    0.7366886138916016 Fe
   0.4519388973712921    0.5261304378509521    0.7125986218452454 Fe
   0.4796586632728576    0.5585747361183167    0.3238490223884583 Fe
   0.3560524582862854    0.7782972455024719    0.0783553048968315 O
   0.8558343648910521    0.0387371964752674    0.7129741311073303 O
   0.9779420495033263    0.7243638038635254    0.4738862216472626 O
   0.6094787716865540    0.1163769215345383    0.1110363975167274 O
   0.2930472791194916    0.3056398034095764    0.6815644502639771 O
   0.8476142287254332    0.8399744629859924    0.9584629535675049 O
   0.3932287991046906    0.8385574817657470    0.3488025069236755 O
   0.7362278699874878    0.5358442664146423    0.2380031496286392 O
   0.4115969240665435    0.5593242645263672    0.8399893045425415 O
   0.7578324675559998    0.4846932888031006    0.6759670376777649 O
   0.9775629043579100    0.9516875743865967    0.2689931094646454 O
   0.5539746880531311    0.4219458401203156    0.4357289671897888 O
   0.0574170574545860    0.1545508950948715    0.4551506042480469 O
   0.9313035011291503    0.2637426555156708    0.8817461133003235 O
   0.2944416403770447    0.4170935153961182    0.2684018909931183 O
   0.4836824536323547    0.0193005520850420    0.8961390852928162 O
   0.3516977131366730    0.7454530596733093    0.6394315958023071 O
