Generated by VASPKIT code
 1.000000
    4.2824273109436035    0.0000000000000000    0.0082291662693021
    0.0050776541591151    6.4179080903869004   -2.1340205669403076
    0.0000000000000000    0.0000000000000000    8.5274782180786133
   Mg   Ga   O 
    10     1    12
Direct
    0.6521410346031189    0.4556154608726502    0.4810588955879211    Mg001
    0.6525818109512329    0.1200939640402794    0.1380608379840851    Mg002
    0.6529478430747986    0.4507434070110322    0.9770899415016174    Mg003
    0.1529622375965118    0.7869049310684204    0.0568795762956142    Mg004
    0.6520038843154907    0.7900193333625793    0.8141760826110840    Mg005
    0.1526971757411957    0.4546926021575928    0.2244430482387543    Mg006
    0.6526567339897156    0.7841613292694093    0.3104205131530762    Mg007
    0.6526681780815125    0.1198560819029808    0.6539074778556824    Mg008
    0.1520088613033295    0.7856405973434449    0.5668349862098694    Mg009
    0.1525264978408813    0.4532546103000641    0.7348650693893433    Mg010
    0.1531141102313995    0.1198865696787834    0.3957565724849701    Ga001
    0.6523584127426147    0.4549806118011475    0.2305640876293182     O001
    0.1522824615240097    0.4432248473167419    0.4732998907566071     O002
    0.1520429849624634    0.7685676217079164    0.8050111532211304     O003
    0.6526736617088318    0.7858457565307618    0.5602852106094360     O004
    0.1524142324924469    0.4717942774295807    0.9869346618652344     O005
    0.6523921489715576    0.1205386370420456    0.8957110643386841     O006
    0.1526788473129272    0.7968206405639648    0.3179651498794556     O007
    0.6524955034255981    0.7908757925033570    0.0651326030492783     O008
    0.1527567952871323    0.1197413802146912    0.6226688027381897     O009
    0.1524017900228500    0.1206319630146027    0.1689286231994629     O010
    0.6524232625961304    0.4488919675350190    0.7267823219299316     O011
    0.6525953412055969    0.1195270866155624    0.3959529101848602     O012
