Generated by VASPKIT code
 1.000000
    6.0197368516131666    0.0246327391422406    0.6482849165126674
    0.7460203707101258    6.3777210522389618   -0.2160767603349034
   -0.0797656815160783   -0.2416049107699940    7.5017672002067934
   Fe   B    P    O 
     3     1     3    15
Direct
    0.5925767593379127    0.3290036920507216    0.1554299197283791    Fe001
    0.2673727024698823    0.5469925971436547    0.4665616118455156    Fe002
    0.5826085794772706    0.0906938798140582    0.8447788599891665    Fe003
    0.7811935648173967    0.5684751100785544    0.4174591987808095     B001
    0.0437760417259664    0.0494424076703311    0.9718934195107782     P001
    0.4065730365320619    0.0715237107918953    0.4621994181705148     P002
    0.5108937886708829    0.5778252165539103    0.7584468376453407     P003
    0.2610042175763886    0.5900640215851630    0.7385211122220181     O001
    0.3020176598894703    0.8655870488792735    0.4439628985906442     O002
    0.7371536328355853    0.5657076861334562    0.2439488448577028     O003
    0.0887446707737919    0.8539148685078568    0.0719875836362289     O004
    0.5971415906606353    0.5203253827048524    0.5451945532912330     O005
    0.9619892673924919    0.6284894909201504    0.4848955222329216     O006
    0.2662643273306722    0.1347668785839926    0.9038820362957033     O007
    0.3379193810816743    0.4728305985276443    0.2351932999192170     O008
    0.6028121099945519    0.3937839333473512    0.8711793996435777     O009
    0.8990584536523160    0.0267825114421795    0.8116030646339708     O010
    0.5912623044260061    0.7731768164584932    0.8444905708764308     O011
    0.9100139003218569    0.2254475988315882    0.1068655357917951     O012
    0.5528986432100388    0.0890195990029978    0.2766155158881984     O013
    0.5902225301128905    0.0696541787762374    0.5907466638604756     O014
    0.2162679471052249    0.2563462111550336    0.4995856348722557     O015
