Na3 Tl1 Cu2 P4 O14
1.0
   5.6777110099792480    0.0000000000000000   -0.0457086451351645
  -0.6535545062539573    7.8074824390946134   -0.0957314819097522
   0.0000000000000000    0.0000000000000000    7.9659738540649414
Na Tl Cu P O
3 1 2 4 14
direct
   0.6937680244445801    0.1890508830547332    0.7480620741844177 Na
   0.6747779250144958    0.0930130481719971    0.1845884621143341 Na
   0.2124248296022415    0.1193108186125755    0.4973506331443787 Na
   0.2729573547840118    0.5187159180641174    0.7635093927383423 Tl
   0.7760914564132689    0.8160299658775328    0.8508670926094056 Cu
   0.2053961008787155    0.8093651533126830    0.2240323722362519 Cu
   0.8381272554397582    0.5318947434425353    0.0578849874436855 P
   0.7572935819625853    0.4263797700405121    0.4208073318004609 P
   0.1647042334079742    0.0120921805500984    0.9035380482673646 P
   0.6852253675460815    0.8288760781288146    0.4620515704154969 P
   0.0010879039764404    0.3927958905696868    0.4788251817226410 O
   0.3148894011974335    0.9958508014678954    0.0636778920888901 O
   0.7368001341819763    0.4152475297451019    0.2163113206624985 O
   0.1308295279741287    0.8404435515403748    0.8021095991134644 O
   0.5701658129692078    0.2925504446029663    0.4815307855606079 O
   0.0883832126855850    0.6048252582550048    0.1131716221570969 O
   0.8991736769676207    0.0448873043060303    0.9525077342987062 O
   0.6594943404197693    0.6680271029472350    0.0305648371577263 O
   0.9012117385864257    0.9105513691902160    0.3759848177433014 O
   0.2746009528636932    0.1543318033218384    0.7904021143913269 O
   0.6746693849563599    0.8904551267623900    0.6444799900054932 O
   0.8437145948410033    0.4167296290397643    0.9051495790481568 O
   0.6853675246238708    0.6175333261489867    0.4681927263736725 O
   0.4491937458515167    0.8716652989387511    0.3793467283248901 O
