Na18 Ga5 As11
1.0
   8.9133644104003906    0.0000000000000000   -1.1696242094039926
  -0.3564720858616548    8.8822377905165713    0.0692299976944908
   0.0000000000000000    0.0000000000000000   11.1142721176147461
Na Ga As
18 5 11
direct
   0.1006567478179932    0.3505491912364960    0.4801124632358551 Na
   0.7287092804908752    0.9338398575782777    0.0981821119785309 Na
   0.2250225841999054    0.4366697371006012    0.8314142823219299 Na
   0.5039083361625671    0.8213473558425903    0.7986822724342346 Na
   0.3998204171657562    0.5286166667938232    0.3700831532478333 Na
   0.9163928627967834    0.8635296225547791    0.8187766671180725 Na
   0.2356063723564148    0.0728096887469292    0.8934506177902222 Na
   0.3164336681365967    0.8934719562530518    0.1843412965536118 Na
   0.8134361505508423    0.5423405766487123    0.2399263679981232 Na
   0.1375206857919693    0.7003132104873657    0.6653528213500977 Na
   0.4726647734642029    0.5861729383468628    0.0673533678054809 Na
   0.3581345081329346    0.8677337169647217    0.4818249344825745 Na
   0.7137660384178162    0.6982985734939575    0.5642870068550110 Na
   0.1387153714895248    0.3198323249816895    0.1837891936302185 Na
   0.8474138975143433    0.3057143092155457    0.9630876183509827 Na
   0.4231313467025757    0.2105247825384140    0.6449635624885559 Na
   0.9744176268577577    0.9255962371826173    0.3809549510478973 Na
   0.6836102008819580    0.3360363245010376    0.4810162484645844 Na
   0.5633166432380676    0.2388002425432205    0.1565636247396469 Ga
   0.0410597808659077    0.6749153137207031    0.0660964995622635 Ga
   0.9132919311523438    0.1643616110086441    0.6631351709365845 Ga
   0.6428368091583252    0.4735581278800965    0.7997172474861145 Ga
   0.6339188814163208    0.0269348062574863    0.3768295049667358 Ga
   0.6752611994743347    0.0205924250185490    0.6156756877899170 As
   0.1142769008874893    0.6508753895759583    0.2908713817596436 As
   0.4272308349609375    0.5494508743286133    0.6413899660110474 As
   0.5108140707015991    0.2659490108489990    0.9380881786346436 As
   0.6088584661483765    0.7604715228080750    0.3074238300323486 As
   0.8970789909362793    0.4374133646488190    0.6898579001426697 As
   0.7651031613349915    0.6586971282958984    0.9652212858200073 As
   0.1356919705867767    0.0370418168604374    0.6240300536155701 As
   0.2277013659477234    0.7492216229438782    0.9414488673210144 As
   0.4009737968444824    0.1874965578317642    0.3175123929977417 As
   0.8219125866889954    0.2000845819711685    0.2608365416526794 As
