Na12 Ga4 Se12
1.0
   8.8727350234985334    0.0000000000000000   -1.4500168561935427
   0.1867927151127924    7.3357388441205043   -0.2198927104473115
   0.0000000000000000    0.0000000000000000   11.7035770416259766
Na Ga Se
12 4 12
direct
   0.5089632272720337    0.7653969526290895    0.6447597742080688 Na
   0.4675399065017700    0.0592677742242813    0.3954553604125977 Na
   0.0428698025643826    0.7252898216247560    0.6495063304901123 Na
   0.7371212244033813    0.6747541427612305    0.3231903612613678 Na
   0.8855271935462952    0.6958254575729371    0.9981061220169067 Na
   0.6488946676254272    0.0968433618545532    0.1117575988173485 Na
   0.2755480706691742    0.3435084223747253    0.5457352399826050 Na
   0.3457983732223511    0.7839602828025819    0.9371932148933411 Na
   0.1329882591962814    0.3238292932510376    0.8572397232055664 Na
   0.1283896267414093    0.0969302430748940    0.1220251098275185 Na
   0.1610748320817947    0.6787863969802858    0.3259390592575073 Na
   0.7283560633659363    0.3676969110965729    0.5389553308486938 Na
   0.8181990981101990    0.0873728916049004    0.7630904912948608 Ga
   0.5686942338943481    0.3683369457721710    0.8649151325225830 Ga
   0.9772921800613403    0.0815235525369644    0.4355073869228363 Ga
   0.4147754609584808    0.5539417862892152    0.1786033511161804 Ga
   0.6311801075935364    0.4753971397876740    0.0713397338986397 Se
   0.9142043590545654    0.9410873651504517    0.2415261119604111 Se
   0.9776125550270081    0.4257851243019104    0.4396412670612335 Se
   0.1621216982603073    0.4753660261631013    0.0902120769023895 Se
   0.4119879603385925    0.8927969932556153    0.1798965632915497 Se
   0.7717514038085938    0.9664396643638612    0.5499719381332397 Se
   0.0434611476957798    0.9523074030876161    0.8731712698936462 Se
   0.3441754579544067    0.5128784775733948    0.7582907080650330 Se
   0.7988294363021851    0.4374587237834930    0.7822232842445374 Se
   0.5902348756790161    0.0258698612451553    0.8510110974311829 Se
   0.4722906053066254    0.4648568630218506    0.3847888708114624 Se
   0.2241321504116058    0.9504923224449159    0.5234066843986511 Se
