Na14 Mg1 Fe2 O11
1.0
   5.7961330413818350    0.0000000000000000   -0.9543269276618961
  -0.5458441980076499    6.5480331081842928   -0.3346679508686069
   0.0000000000000000    0.0000000000000000   10.3790636062622070
Na Mg Fe O
14 1 2 11
direct
   0.9959982037544249    0.3026897609233856    0.5955435633659363 Na
   0.7570633292198181    0.9607612490653992    0.9180471301078796 Na
   0.2975154817104340    0.7341202497482300    0.8630558848381042 Na
   0.2249039709568023    0.2137987911701202    0.8962171077728271 Na
   0.6583102345466614    0.1672299057245254    0.1948961019515991 Na
   0.4942318499088287    0.1387077569961548    0.6561389565467834 Na
   0.8441814780235291    0.5277227163314819    0.7783756852149963 Na
   0.0141248591244221    0.6320590376853943    0.4150701165199280 Na
   0.7555487155914307    0.3616173863410950    0.9669156074523926 Na
   0.2129222452640533    0.4861822426319122    0.1711340397596359 Na
   0.9113322496414183    0.9135754704475402    0.6204611659049988 Na
   0.0876932293176651    0.1176613271236420    0.3465789854526520 Na
   0.7306172847747803    0.7353816628456116    0.1461939215660095 Na
   0.4979995191097259    0.8160026073455809    0.3990280032157898 Na
   0.4227254986763000    0.5773680210113525    0.6296804547309875 Mg
   0.1642983704805374    0.9134075641632080    0.0963018015027046 Fe
   0.5809896588325500    0.3783231973648071    0.4234378337860107 Fe
   0.4512718617916107    0.9659790992736816    0.0337152890861034 O
   0.9808511137962340    0.6938273906707764    0.9830271005630493 O
   0.0121011035516858    0.1622155010700226    0.1032827496528625 O
   0.8713679909706115    0.1739049851894379    0.7724651098251343 O
   0.6103771328926086    0.4921381771564484    0.2622754275798798 O
   0.7242371439933777    0.1253039091825485    0.4276515245437622 O
   0.2845560312271118    0.3784028589725494    0.4783819615840912 O
   0.7270780205726624    0.5834653377532959    0.5576953291893005 O
   0.1530835330486298    0.8101838827133179    0.2601853609085083 O
   0.2772937119007111    0.8243567943572998    0.6334164142608643 O
   0.4489184021949768    0.4496013224124908    0.7979248166084290 O
