Na2 Sn1 H2
1.0
   3.3354778289794922    0.0000000000000000    0.6730994582176210
   1.5918458347978237    2.9330692419801747    0.6872539520263670
   0.0000000000000000    0.0000000000000000    8.4400062561035156
Na Sn H
2 1 2
direct
   0.9676905274391175    0.6865326166152954    0.6187570095062256 Na
   0.2008848041296006    0.9146911501884459    0.9373230934143065 Na
   0.4269375503063202    0.1380594968795776    0.2770272195339203 Sn
   0.8105940222740173    0.5208123326301575    0.1279072463512421 H
   0.5869154334068298    0.3037238717079163    0.7656123042106628 H
