Na1 Sr1 Hf1 Bi1 O6
1.0
   5.0964870452880859    0.0000000000000000    2.9365973472595215
   1.6954674988930369    4.8059509284056796    2.9350359439849849
   0.0000000000000000    0.0000000000000000    5.8793797492980957
Na Sr Hf Bi O
1 1 1 1 6
direct
   0.7476850748062133    0.6053992509841920    0.0476898811757565 Na
   0.2469099313020706    0.1048940122127533    0.5478354096412659 Sr
   0.4969953894615173    0.3553116917610168    0.7979381084442140 Hf
   0.9973140358924866    0.8553697466850282    0.2975583970546722 Bi
   0.2501550912857056    0.1080317646265030    0.0446302220225334 O
   0.7448018193244934    0.6023334264755249    0.5506669878959656 O
   0.2502792775630951    0.6023496389389038    0.0448519960045815 O
   0.7448901534080505    0.1077791973948479    0.5503680706024170 O
   0.7448473572731018    0.1080367937684059    0.0448820628225803 O
   0.2499399036169052    0.6024085283279419    0.5503979921340942 O
