Ba1 Na2 W3 O11
1.0
   5.4853529930114746    0.0000000000000000   -0.0922095254063622
  -1.6626705828950956    7.4115836777091184    0.0117411520332097
   0.0000000000000000    0.0000000000000000    6.4481635093688965
Ba Na W O
1 2 3 11
direct
   0.9700341224670411    0.2411155551671982    0.3389598429203033 Ba
   0.6356975436210632    0.7408672571182250    0.3245272636413574 Na
   0.1374892741441726    0.7353609204292296    0.0915318801999092 Na
   0.5622581243515015    0.4568741619586944    0.8426506519317627 W
   0.1503347605466843    0.7534675002098083    0.5855944156646729 W
   0.4701531529426575    0.0755917206406593    0.8462475538253784 W
   0.5048146247863770    0.9176583886146545    0.6097417473793030 O
   0.7386865615844727    0.5566717982292175    0.0685018077492714 O
   0.5622364282608032    0.9563140273094177    0.0688599199056625 O
   0.2309874892234803    0.5989111661911011    0.3961515724658967 O
   0.3205140829086304    0.5975951552391052    0.8154404759407043 O
   0.1265692263841629    0.9225007295608521    0.8208506107330322 O
   0.0412647724151611    0.8966624140739441    0.3910034894943237 O
   0.3528768420219421    0.2608916759490967    0.0178089048713446 O
   0.7832292318344116    0.2571140229701996    0.8289778232574463 O
   0.8119133710861206    0.5992645025253296    0.6495000123977661 O
   0.3977877497673035    0.2737765014171600    0.6198824048042297 O
