Na1 Sr1 Tb1 W1 O6
1.0
   5.1139564514160165    0.0000000000000000    2.9565443992614733
   1.7054723843939417    4.8237940017826801    2.9622669219970712
   0.0000000000000000    0.0000000000000000    5.9105839729309082
Na Sr Tb W O
1 1 1 1 6
direct
   0.3142139911651611    0.5633847713470459    0.9413689970970154 Na
   0.8137530088424683    0.0632109120488167    0.4415884315967560 Sr
   0.5639023780822753    0.8134711980819703    0.1912121027708054 Tb
   0.0642068013548851    0.3132568895816804    0.6914201378822327 W
   0.2964210510253906    0.5456160306930542    0.4587700664997101 O
   0.2964098155498505    0.0806802660226822    0.9241396784782410 O
   0.8315623402595520    0.0810500904917717    0.9241144061088562 O
   0.8311104774475098    0.5455138087272645    0.9240304827690125 O
   0.8316097259521484    0.5456900596618652    0.4592914283275604 O
   0.2962332665920258    0.0806230828166008    0.4593967199325562 O
