Na1 Sr1 Nd1 W2 O9
1.0
   5.8016309738159180    0.0000000000000000   -0.0130903469398628
  -2.9107205466949906    5.0134033651048879    0.0058634751476338
   0.0000000000000000    0.0000000000000000    7.2833042144775391
Na Sr Nd W O
1 1 1 2 9
direct
   0.9302372336387634    0.1395604759454727    0.8564715981483459 Na
   0.5972688794136047    0.4732403457164764    0.1943274885416031 Sr
   0.5966929793357849    0.4737284481525421    0.6864421367645264 Nd
   0.9287036061286926    0.1405306011438370    0.3604333996772766 W
   0.2625900208950042    0.8060464262962340    0.0276935789734125 W
   0.5985388755798340    0.9743596911430359    0.1876195967197418 O
   0.0956216230988503    0.9741377234458922    0.1882501393556595 O
   0.0947563722729683    0.4702911674976349    0.1881719529628754 O
   0.4204589724540710    0.1204209774732590    0.8899751901626587 O
   0.4200931191444397    0.6489032506942749    0.8886288404464722 O
   0.7757744789123535    0.8312142491340637    0.4965774714946747 O
   0.2394212335348129    0.2945987582206726    0.4961844980716705 O
   0.9485093355178833    0.6501248478889465    0.8901213407516479 O
   0.7751997113227844    0.2947975397109985    0.4975679814815521 O
