Na4 Sn1 H9 N1 O10
1.0
   5.3791480064392081    0.0000000000000000   -1.6042345762252812
   0.4274091237047064    6.0002232500941615   -1.5231792926788348
   0.0000000000000000    0.0000000000000000    8.4087772369384766
Na Sn H N O
4 1 9 1 10
direct
   0.8818498253822327    0.5535018444061279    0.0555379055440426 Na
   0.0606262162327767    0.9642111659049987    0.4096753001213074 Na
   0.2494752556085587    0.3125129044055939    0.8073684573173523 Na
   0.5796843767166138    0.3893036246299744    0.5779621601104736 Na
   0.9359900355339050    0.9467072486877443    0.8943763971328735 Sn
   0.6029085516929626    0.7786548137664795    0.3735948801040649 H
   0.6198887825012207    0.3821671605110168    0.2796834111213684 H
   0.7195416092872620    0.0653508380055428    0.1536427289247513 H
   0.2601128816604614    0.2354882657527924    0.1163052842020988 H
   0.5806603431701660    0.0309138316661119    0.6589508652687074 H
   0.5007264614105225    0.0253314636647701    0.3368646800518036 H
   0.5349367856979370    0.7367867231369017    0.8375004529953003 H
   0.1413398981094360    0.7732830047607423    0.6566415429115295 H
   0.3169300556182861    0.7546097636222840    0.0847532823681832 H
   0.0073017603717744    0.4782964289188385    0.4347246885299683 N
   0.8780750632286072    0.5815849900245667    0.3385093808174133 O
   0.6933118104934692    0.6841782927513123    0.7970958352088928 O
   0.5311939120292664    0.2594362795352936    0.2793140709400177 O
   0.1196655705571175    0.3819972574710846    0.5317620635032654 O
   0.1198752522468567    0.2338782250881195    0.0136422831565142 O
   0.8478050827980042    0.9528829455375671    0.1210510358214378 O
   0.4652700424194336    0.8941381573677063    0.3770978152751923 O
   0.2244332283735275    0.7069461941719055    0.9671695828437805 O
   0.0856540948152542    0.9264645576477051    0.6866361498832703 O
   0.6371431350708008    0.1450755447149277    0.7683781981468201 O
