Na9 Cd3 Ag2 Ge1 S11
1.0
   7.1590991020202628    0.0000000000000000   -0.9437576532363893
  -2.8961154348261449    7.2153786162301641   -0.2729317545890804
   0.0000000000000000    0.0000000000000000   12.0900535583496094
Na Cd Ag Ge S
9 3 2 1 11
direct
   0.4084671437740326    0.3987507522106171    0.1191188544034958 Na
   0.1533648222684860    0.0752213373780251    0.5544990897178650 Na
   0.4055766761302948    0.5401594638824463    0.6695967316627502 Na
   0.6448327898979187    0.1573824286460876    0.4214692711830139 Na
   0.9521647095680237    0.6197015047073364    0.5128266215324402 Na
   0.4807725548744202    0.9455620646476746    0.1433108747005463 Na
   0.0801972001791000    0.2365365922451019    0.2848095595836639 Na
   0.9582617878913879    0.7040430903434753    0.2136510610580444 Na
   0.2547207772731781    0.1634311974048615    0.8733393549919128 Na
   0.8613923788070679    0.8394479751586914    0.9349458217620850 Cd
   0.7266255617141724    0.0223905332386494    0.6885668039321899 Cd
   0.7918965220451355    0.3078622221946716    0.0142062697559595 Cd
   0.8963475823402405    0.5041550397872925    0.7732858061790466 Ag
   0.3695747256278992    0.7022913098335266    0.9075239896774292 Ag
   0.5033979415893555    0.6834363341331483    0.4116215109825134 Ge
   0.1286150217056274    0.0190047249197960    0.0944034680724144 S
   0.7346209287643433    0.3103269338607789    0.2096022367477417 S
   0.9674004316329957    0.3167086839675904    0.6189787983894348 S
   0.3028722703456879    0.6334900259971619    0.2513393163681030 S
   0.5915327668190002    0.0070590041577816    0.8857669234275818 S
   0.9805096983909607    0.8476964235305787    0.7313327789306641 S
   0.4030771255493165    0.8427537083625795    0.5396792292594910 S
   0.8192316889762878    0.8621428012847902    0.3816512823104858 S
   0.1139313653111458    0.4554877579212189    0.9493664503097534 S
   0.6035627126693726    0.5029336214065552    0.8976848125457764 S
   0.4519351720809937    0.3971003592014313    0.4666425287723541 S
