Generated by VASPKIT code
 1.000000
    9.0221707557031454   -0.0903617417555097   -1.2957969830153937
    0.1053162616151690    7.3190736084128405   -0.2674130636284198
    0.1860618939642385   -0.0834592329123015   11.6218260719310553
   Ga   Se
     4    12
Direct
    0.8162631510649241    0.0844002017195079    0.7690055117057122    Ga001
    0.5768856480111159    0.3721938960517029    0.8653237087867861    Ga002
    0.9781931778235535    0.0899306713388146    0.4383521320302158    Ga003
    0.4129933344300179    0.5662620677820871    0.1728932524688888    Ga004
    0.6308620482347086    0.4734015042802550    0.0709588382353496    Se001
    0.9036958906467256    0.9387663832389995    0.2513432694141973    Se002
    0.9792405654695329    0.4227080422656844    0.4502097932951954    Se003
    0.1743658884837423    0.4640553511815206    0.0884293412589113    Se004
    0.4036498522476800    0.8978248322856015    0.1691990925305342    Se005
    0.7709959395090394    0.9794065427629529    0.5591609140925172    Se006
    0.0271595568794086    0.9432676037354930    0.8735264030327350    Se007
    0.3690809880230194    0.5120299193400523    0.7565015495768271    Se008
    0.8164320558870836    0.4255458981980060    0.7894174674115936    Se009
    0.5826078416619748    0.0338191052581738    0.8499623738835348    Se010
    0.4727631666941239    0.4800684815436831    0.3784240349411162    Se011
    0.2155057067403143    0.9620088670767980    0.5197940767830805    Se012
