Generated by VASPKIT code
 1.000000
    4.2019286095557753   -0.0166599914797134   -0.0009715199396565
   -2.0855464211215189    3.6470251360223016   -0.0001936975962126
    0.0124964753789883   -0.0060921662143694    7.7281870792874772
   Li   Zn   As
     1     2     2
Direct
    0.5423477782037711    0.1196854975316164    0.7025839381457273    Li001
    0.8751905627523221    0.7900162199877998    0.5394815218117054    Zn001
    0.2087808145414082    0.4571432292328447    0.8647962814860117    Zn002
    0.2083506180056232    0.4564282463965786    0.4704233409179500    As001
    0.8751976455529950    0.7905573932072860    0.9338165143401099    As002
