Rb1 Na6 Lu1 Ti11 O27                    
   1.00000000000000     
     3.7388194819860385   -0.0020278741497521    0.0041407256114032
    -0.0071805024372577    7.8390456809397335    0.4531023574167133
     0.0000733437318266    0.5080274566476519   20.4151430623539838
   Rb   Na   Lu   Ti   O 
     1     6     1    11    27
Direct
  0.6618510119709646  0.8114305647811754  0.3219053707188690
  0.6566651598291275  0.1545723868271522  0.9100889352149564
  0.6594882761151868  0.6683740498415486  0.5225022702000859
  0.6559702274973161  0.6945606189398954  0.7297811847120873
  0.1542049202284782  0.4380000188017442  0.0383312966301636
  0.6557851541293169  0.2245872299482811  0.1494297136693399
  0.6542518573767636  0.5634899117252078  0.2123974272081077
  0.6584203291788500  0.2316181466971816  0.5453298839472330
  0.1651405768470426  0.9552476579704271  0.4530060074260089
  0.1566037034980461  0.4809874246071680  0.6316617974207447
  0.1567957727151448  0.4730804958954014  0.4309976385797879
  0.1558893621978715  0.3963025909705498  0.8120694697790495
  0.6553586913712384  0.6397657974447748  0.8891849543272222
  0.1537610603253492  0.9012057098799153  0.1699222631455675
  0.1753674096525985  0.2295627921551764  0.2961350224031826
  0.1563137533650115  0.0556436342279510  0.0173093120012504
  0.1572390647623338  0.9270258210477683  0.8278630788872683
  0.6554489202049595  0.7386963314152140  0.0661769603948549
  0.1562598377514769  0.9353037863389354  0.6342829020299220
  0.1556279813348072  0.1343936726071434  0.0985228044839084
  0.6568567865918952  0.8428722979295823  0.8240625261177926
  0.6574894012736431  0.4096334362991567  0.6333452673691302
  0.1568907308173740  0.7119015558904557  0.6057839930984797
  0.6563202089448296  0.9798648301640497  0.0106973149086463
  0.1557477229446595  0.6173457731556132  0.8602203495191747
  0.6557132790324156  0.4199578665969770  0.8406903764905777
  0.6614078884246176 -0.0626759466549497  0.4660037338148645
  0.1566073042355444  0.8834494572310774  0.7185165889632691
  0.6540362829573801  0.6306749822578981  0.9738928980867387
  0.6545780385493264  0.8752436979496524  0.1475541706414062
  0.6566314082907305  0.4009561548736172  0.4528909840224958
  0.1595842834354122  0.7040878069371536  0.4419935423372858
  0.1573600133286915  0.9302609419398568  0.9110558156208657
  0.1459565130345406  0.0703153851928231  0.2344745038442864
  0.1579717603185871  0.4038975508002770  0.5468313226049821
  0.1552511620021325  0.7894192646751961  0.0717336178544623
  0.1570122397894020  0.4883453275907539  0.7276127026122393
  0.1497611277837607  0.4498842015045365  0.3474192647640315
  0.1562138176245140  0.2447205648404474  0.9626587080117569
  0.6571107568677299  0.0134689657403487  0.6254822918357074
  0.1563754266589015  0.1662793945954091  0.8086022100531639
  0.1692302360811539  0.0808507563580503  0.3733916044694097
  0.1551461531796452  0.7212599126827015  0.2274878036476853
  0.6457826136966593  0.2908457568632588  0.2733726041060810
  0.1587817021274707  0.0799369176862589  0.5316053128305732
  0.6546941647557409  0.5247443256695508  0.1027892869722413
 
  0.00000000E+00  0.00000000E+00  0.00000000E+00
  0.00000000E+00  0.00000000E+00  0.00000000E+00
  0.00000000E+00  0.00000000E+00  0.00000000E+00
  0.00000000E+00  0.00000000E+00  0.00000000E+00
  0.00000000E+00  0.00000000E+00  0.00000000E+00
  0.00000000E+00  0.00000000E+00  0.00000000E+00
  0.00000000E+00  0.00000000E+00  0.00000000E+00
  0.00000000E+00  0.00000000E+00  0.00000000E+00
  0.00000000E+00  0.00000000E+00  0.00000000E+00
  0.00000000E+00  0.00000000E+00  0.00000000E+00
  0.00000000E+00  0.00000000E+00  0.00000000E+00
  0.00000000E+00  0.00000000E+00  0.00000000E+00
  0.00000000E+00  0.00000000E+00  0.00000000E+00
  0.00000000E+00  0.00000000E+00  0.00000000E+00
  0.00000000E+00  0.00000000E+00  0.00000000E+00
  0.00000000E+00  0.00000000E+00  0.00000000E+00
  0.00000000E+00  0.00000000E+00  0.00000000E+00
  0.00000000E+00  0.00000000E+00  0.00000000E+00
  0.00000000E+00  0.00000000E+00  0.00000000E+00
  0.00000000E+00  0.00000000E+00  0.00000000E+00
  0.00000000E+00  0.00000000E+00  0.00000000E+00
  0.00000000E+00  0.00000000E+00  0.00000000E+00
  0.00000000E+00  0.00000000E+00  0.00000000E+00
  0.00000000E+00  0.00000000E+00  0.00000000E+00
  0.00000000E+00  0.00000000E+00  0.00000000E+00
  0.00000000E+00  0.00000000E+00  0.00000000E+00
  0.00000000E+00  0.00000000E+00  0.00000000E+00
  0.00000000E+00  0.00000000E+00  0.00000000E+00
  0.00000000E+00  0.00000000E+00  0.00000000E+00
  0.00000000E+00  0.00000000E+00  0.00000000E+00
  0.00000000E+00  0.00000000E+00  0.00000000E+00
  0.00000000E+00  0.00000000E+00  0.00000000E+00
  0.00000000E+00  0.00000000E+00  0.00000000E+00
  0.00000000E+00  0.00000000E+00  0.00000000E+00
  0.00000000E+00  0.00000000E+00  0.00000000E+00
  0.00000000E+00  0.00000000E+00  0.00000000E+00
  0.00000000E+00  0.00000000E+00  0.00000000E+00
  0.00000000E+00  0.00000000E+00  0.00000000E+00
  0.00000000E+00  0.00000000E+00  0.00000000E+00
  0.00000000E+00  0.00000000E+00  0.00000000E+00
  0.00000000E+00  0.00000000E+00  0.00000000E+00
  0.00000000E+00  0.00000000E+00  0.00000000E+00
  0.00000000E+00  0.00000000E+00  0.00000000E+00
  0.00000000E+00  0.00000000E+00  0.00000000E+00
  0.00000000E+00  0.00000000E+00  0.00000000E+00
  0.00000000E+00  0.00000000E+00  0.00000000E+00
