Na12 Nb1 O8                             
   1.00000000000000     
     6.5801096546344686    0.0056514147307679   -0.1787905170380788
     0.0416759926217968    6.5561226935004386    0.1635363174523023
    -0.0062249328904886   -0.0233853636563372    8.1575416325403793
   Na   Nb   O 
    12     1     8
Direct
  0.1224802199935701  0.9145335121378677  0.8639497666782541
  0.7729002544750424  0.5282667104251889  0.6959149748577137
  0.0847468476308008  0.4487124613722706  0.1219016415150489
  0.3802432110837969  0.7924869701740189  0.6148847516973608
  0.1213075504235633  0.4288025177685520  0.5700180660154183
  0.3567083727731550  0.8138591147841432  0.1438211574579175
  0.7563689936488538  0.0489894220996181  0.6815945264427666
  0.0886387356627293  0.0208883173201068  0.3689319239648908
  0.3725918187805423  0.2696924619126047  0.8698886447702798
  0.6937737376979350  0.6514525102782827  0.0052090086020878
  0.7835898783514755  0.7336020354630171  0.3635969663344555
  0.7677489306403216  0.0964595725768200  0.0468681998311886
  0.5577620194552981  0.2931501430496186  0.3605444470487859
  0.4853621232186052  0.0135646053527924  0.3715653644033744
  0.4611912916235338  0.4282479071018402  0.1648209210012642
  0.4774674837894994  0.4207873695109073  0.5541132535981902
  0.5017919053441823  0.9203393406427623  0.8767825229241354
  0.8417840975061246  0.3153983906938855  0.3651408987020812
  0.0024410008634870  0.7865669112722733  0.5966864396800342
  0.9875947289986452  0.2900516415861784  0.8521795386917689
  0.9883302010992525  0.8098079883611843  0.1341831756283151
 
  0.00000000E+00  0.00000000E+00  0.00000000E+00
  0.00000000E+00  0.00000000E+00  0.00000000E+00
  0.00000000E+00  0.00000000E+00  0.00000000E+00
  0.00000000E+00  0.00000000E+00  0.00000000E+00
  0.00000000E+00  0.00000000E+00  0.00000000E+00
  0.00000000E+00  0.00000000E+00  0.00000000E+00
  0.00000000E+00  0.00000000E+00  0.00000000E+00
  0.00000000E+00  0.00000000E+00  0.00000000E+00
  0.00000000E+00  0.00000000E+00  0.00000000E+00
  0.00000000E+00  0.00000000E+00  0.00000000E+00
  0.00000000E+00  0.00000000E+00  0.00000000E+00
  0.00000000E+00  0.00000000E+00  0.00000000E+00
  0.00000000E+00  0.00000000E+00  0.00000000E+00
  0.00000000E+00  0.00000000E+00  0.00000000E+00
  0.00000000E+00  0.00000000E+00  0.00000000E+00
  0.00000000E+00  0.00000000E+00  0.00000000E+00
  0.00000000E+00  0.00000000E+00  0.00000000E+00
  0.00000000E+00  0.00000000E+00  0.00000000E+00
  0.00000000E+00  0.00000000E+00  0.00000000E+00
  0.00000000E+00  0.00000000E+00  0.00000000E+00
  0.00000000E+00  0.00000000E+00  0.00000000E+00
