Ba1 Sr1 Hf1 W1 O6
1.0
   5.0568432807922363    0.0000000000000000    2.9619069099426270
   1.7024130276901410    4.7564265362352938    2.9663076400756827
   0.0000000000000000    0.0000000000000000    5.8657741546630859
Ba Sr Hf W O
1 1 1 1 6
direct
   0.9523443579673767    0.2672803103923798    0.7206782698631287 Ba
   0.4514317810535431    0.7665203809738159    0.2205830663442612 Sr
   0.2014921456575394    0.5171323418617249    0.9703848958015442 Hf
   0.7023151516914368    0.0160726644098759    0.4713374674320221 W
   0.4550543129444122    0.2632413506507874    0.2243896722793579 O
   0.9476794004440308    0.7704603672027588    0.2243614196777344 O
   0.9478123784065247    0.2629735171794891    0.2240947037935258 O
   0.4551930129528046    0.2630654871463776    0.7172211408615112 O
   0.9481139183044434    0.7707558870315552    0.7174984216690063 O
   0.4549641609191895    0.7702200412750244    0.7168763875961304 O
