Na5 Mg1 V1 S5
1.0
   6.9733300209045401    0.0000000000000000    0.6687220335006708
  -2.3482698859212410    4.9601413551686848   -2.3846073150634761
   0.0000000000000000    0.0000000000000000    7.6885709762573242
Na Mg V S
5 1 1 5
direct
   0.5758713483810425    0.1031911894679070    0.9661903977394103 Na
   0.2395614087581635    0.1568501889705658    0.6718693375587462 Na
   0.9184825420379640    0.7779214382171632    0.2599928677082062 Na
   0.3714818060398102    0.5679036974906921    0.4233900606632232 Na
   0.7797357439994813    0.3052616417407990    0.5058044791221619 Na
   0.2744050025939941    0.6354000568389893    0.0553317517042160 Mg
   0.8885645270347596    0.8491863012313844    0.8747448325157164 V
   0.1522266715764999    0.6899496912956238    0.7861386537551879 S
   0.7818928360939027    0.8737484216690063    0.6141558885574340 S
   0.5914273858070374    0.5532152056694031    0.9628506302833556 S
   0.3728808462619782    0.0340919718146324    0.3279831707477569 S
   0.0004217624664307    0.2719003558158875    0.1338537931442261 S
