Na6 Li2 Ti1 P3 O13                      
   1.00000000000000     
     5.3194681815914775    0.0009628488390997    1.1581208936261311
    -0.0532991902065920    6.9817097390979255    0.0537833832804291
    -0.0653398537697201   -0.0442557838661490    8.6277675831363343
   Na   Li   Ti   P    O 
     6     2     1     3    13
Direct
  0.9583700402248346  0.7494235539774698  0.2384302935482275
  0.4826775642627552  0.4862951499185316  0.2050455511656979
  0.3899568154825503  0.2789188338228064  0.5535979274427429
  0.7476938820672161  0.7310568693632299  0.8591061498131097
  0.3644825083886935  0.7362871019735446  0.5601253486370212
  0.2340120760527253  0.9852799546930745  0.9334790777153118
  0.9515565422315457  0.2626587529096617  0.2162138578993064
  0.7567997391370448  0.9836377729349904  0.5630485728985719
  0.7532543868690177  0.2345352263640332  0.8563765521818766
  0.2285312295283199  0.4828292432420960  0.9191657205234918
  0.8905252815788689  0.5003315420708782  0.5046431507584407
  0.5003651574383688  0.0054414515961756  0.2157837792286164
  0.1784374130041388  0.5046381665124343  0.4451176319418254
  0.5174196060072598  0.4560645340905149  0.9129892709747961
  0.7544224958569711  0.4533103695104809  0.3695448387016769
  0.0953649395833069  0.4836372702923089  0.0930463870888360
  0.5325217133260399  0.0132929022678810  0.3926699193202001
  0.1359092789753192  0.3036982276661087  0.8345031144537253
  0.2199667733197557  0.0367308502418285  0.2049494917048938
  0.5918953399466339  0.8089969843277757  0.1430424885660918
  0.8071138120724621  0.7024012607058544  0.5731368387946983
  0.6677557336077615  0.1684443159885371  0.1180181026361677
  0.6440229663174190  0.0221772851179805  0.7834802848143277
  0.8152987360202708  0.3333888131349541  0.6264889774185659
  0.1869322659028310  0.6714872713264358  0.8347437342760713
 
  0.00000000E+00  0.00000000E+00  0.00000000E+00
  0.00000000E+00  0.00000000E+00  0.00000000E+00
  0.00000000E+00  0.00000000E+00  0.00000000E+00
  0.00000000E+00  0.00000000E+00  0.00000000E+00
  0.00000000E+00  0.00000000E+00  0.00000000E+00
  0.00000000E+00  0.00000000E+00  0.00000000E+00
  0.00000000E+00  0.00000000E+00  0.00000000E+00
  0.00000000E+00  0.00000000E+00  0.00000000E+00
  0.00000000E+00  0.00000000E+00  0.00000000E+00
  0.00000000E+00  0.00000000E+00  0.00000000E+00
  0.00000000E+00  0.00000000E+00  0.00000000E+00
  0.00000000E+00  0.00000000E+00  0.00000000E+00
  0.00000000E+00  0.00000000E+00  0.00000000E+00
  0.00000000E+00  0.00000000E+00  0.00000000E+00
  0.00000000E+00  0.00000000E+00  0.00000000E+00
  0.00000000E+00  0.00000000E+00  0.00000000E+00
  0.00000000E+00  0.00000000E+00  0.00000000E+00
  0.00000000E+00  0.00000000E+00  0.00000000E+00
  0.00000000E+00  0.00000000E+00  0.00000000E+00
  0.00000000E+00  0.00000000E+00  0.00000000E+00
  0.00000000E+00  0.00000000E+00  0.00000000E+00
  0.00000000E+00  0.00000000E+00  0.00000000E+00
  0.00000000E+00  0.00000000E+00  0.00000000E+00
  0.00000000E+00  0.00000000E+00  0.00000000E+00
  0.00000000E+00  0.00000000E+00  0.00000000E+00
