Generated by VASPKIT code
 1.000000
    3.7770390227101296   -0.0274690462311970    1.1617172876931172
    1.7391856978908209    3.3509956584736993    1.1624529081026480
   -0.0111779276785674   -0.0066663621852898    6.7562702349037291
   Y    F 
     1     4
Direct
    0.1490178500136646    0.6247657512081922    0.2329509620948373     Y001
    0.7884953135030855    0.2645139273371642    0.3147997150358786     F001
    0.5094924723123703    0.9853429279271377    0.1509508335242613     F002
    0.0362215709077809    0.5115536316749429    0.5719520245893759     F003
    0.2618915743890550    0.7379684707451711    0.8941628854396081     F004
