Na2 Ta1 Ti1 Al1 Si2 Sn1 P2 C1 S1 O23
1.0
   7.5758323669433585    0.0000000000000000   -4.6059422492980966
  -4.8713816743065763    7.2741739069754043   -0.2015808969736105
   0.0000000000000000    0.0000000000000000    8.9050788879394531
Na Ta Ti Al Si Sn P C S O
2 1 1 1 2 1 2 1 1 23
direct
   0.2456234842538834    0.2788453698158264    0.9983044266700745 Na
   0.2687639594078064    0.7746067047119141    0.5159375071525574 Na
   0.9400172829627991    0.1105432808399200    0.1406887769699098 Ta
   0.4999070167541504    0.3850550949573516    0.8253957629203796 Ti
   0.5284754633903503    0.8727374672889708    0.3736870586872100 Al
   0.7259638905525208    0.2098259329795837    0.7277222871780396 Si
   0.4480233490467072    0.5082485675811768    0.4581824243068695 Si
   0.9457967877387999    0.5997214913368224    0.6415791511535643 Sn
   0.4484956264495850    0.7151415348052979    0.9752299189567566 P
   0.0149789489805697    0.9984669685363768    0.5400897264480591 P
   0.7687580585479736    0.3417557477951050    0.2342216670513152 C
   0.0249762069433928    0.7879946231842041    0.0432747639715671 S
   0.0418497174978255    0.8344146609306334    0.5598865151405334 O
   0.8472849130630493    0.2553265392780304    0.2025413960218429 O
   0.0207243375480175    0.0450832843780518    0.3762724399566650 O
   0.8130385279655457    0.9598017930984497    0.5094143748283386 O
   0.2147775739431381    0.1733918190002441    0.7244757413864136 O
   0.0338814705610275    0.7805982232093811    0.8798637986183167 O
   0.2288334965705871    0.3213337659835815    0.2706344127655029 O
   0.5638003349304199    0.0341038852930069    0.5401679277420044 O
   0.6552362442016602    0.8804539442062377    0.0127040622755885 O
   0.2665117681026458    0.7051044702529906    0.7863445281982422 O
   0.0439780503511429    0.9679144620895385    0.0806463733315468 O
   0.9118012785911560    0.3915056884288788    0.7381892800331115 O
   0.5984034538269043    0.3329920172691345    0.0909145772457122 O
   0.4431006014347076    0.4684478342533111    0.6363992691040039 O
   0.2084405422210693    0.8034110069274901    0.2101467996835708 O
   0.8268273472785950    0.6346943974494934    0.0002902746200561 O
   0.6449496746063232    0.5182404518127441    0.4750771224498749 O
   0.4314284622669219    0.6814320683479308    0.4314661324024200 O
   0.4416802823543549    0.5375735163688660    0.9489740133285522 O
   0.9129699468612671    0.4786695241928100    0.4045926630496979 O
   0.5941048860549927    0.2585711181163788    0.7761541008949280 O
   0.4439048171043395    0.7591549754142760    0.1399884074926376 O
   0.8655079603195190    0.1594963669776916    0.9121479988098145 O
