Na4 Cu2 P3 C1 O14 F1
1.0
   4.7843909263610840    0.0000000000000000   -0.1661539375782016
  -0.4051866713609707    7.7215554391104320   -1.0435239076614380
   0.0000000000000000    0.0000000000000000    9.0095195770263672
Na Cu P C O F
4 2 3 1 14 1
direct
   0.0074456133879721    0.0734487697482109    0.7956151366233826 Na
   0.4731982946395874    0.9625389575958251    0.3279949128627777 Na
   0.4708583950996399    0.3874452114105224    0.0956226587295532 Na
   0.9305487275123596    0.6906259059906006    0.4300710260868073 Na
   0.4792088568210602    0.3880956470966339    0.5946968197822571 Cu
   0.4716530442237854    0.7783612012863159    0.9512429237365723 Cu
   0.9921823143959045    0.0021471027284861    0.1349419206380844 P
   0.0099243186414242    0.3129043877124786    0.3570142090320587 P
   0.9686639308929443    0.4651581346988677    0.8279182314872742 P
   0.4962285757064819    0.8572285771369934    0.6288390755653381 C
   0.1324034780263901    0.4472771883010864    0.2682842314243317 O
   0.3955936431884766    0.7409774065017700    0.5214864015579224 O
   0.3764070272445679    0.8786180615425109    0.7618639469146729 O
   0.1505615711212158    0.6154940128326416    0.9289214015007019 O
   0.8014221787452698    0.9399947524070740    0.9907696247100830 O
   0.2319259792566299    0.2224175930023193    0.4451491236686707 O
   0.7051216959953308    0.9548391103744507    0.5963668227195740 O
   0.7720839977264404    0.3944947421550750    0.4502027332782745 O
   0.7441813349723816    0.5452838540077209    0.7353993654251099 O
   0.8226380348205566    0.3409750163555145    0.9245747327804565 O
   0.8369432687759399    0.1636116951704025    0.2343785911798477 O
   0.0133462613448501    0.8790112733840942    0.2526194453239441 O
   0.2622715532779694    0.0801291614770889    0.0857455804944038 O
   0.1764649599790573    0.3501062989234924    0.7282373309135436 O
   0.5415057539939880    0.6922214031219482    0.1354271918535233 F
