Generated by VASPKIT code
 1.000000
    7.7014729905652439    0.0617691484475355   -3.5712419767907546
   -1.5927740395891616    8.2505339832437148   -2.1513930517054352
   -0.0222145771538168    0.0386591109965881   13.9627570309056424
   Ga   As
     4    11
Direct
    0.5403035093582900    0.3925437117681534    0.8255854825405825    Ga001
    0.4878001925724902    0.7436216966616982    0.1337532424522327    Ga002
    0.3908208563348575    0.7267028606814780    0.8778757943479976    Ga003
    0.5553000492742813    0.9141786149727656    0.3787448132259889    Ga004
    0.1073211020049679    0.3312689404071426    0.2923276945375802    As001
    0.8250624055983508    0.2686985325020680    0.9013212519048683    As002
    0.5623996302519683    0.9710176902691545    0.0612961112357949    As003
    0.3909971657456942    0.4937778979611537    0.9648741170868977    As004
    0.2904562822370610    0.1906269947058516    0.6651627805496276    As005
    0.2357161948041530    0.8123012554700311    0.1826986258140818    As006
    0.0919225447418006    0.7762055883258253    0.7525856055680312    As007
    0.7482665339663722    0.7364868899522364    0.3100997823178456    As008
    0.6815448062058004    0.2313571938813104    0.4582020001856381    As009
    0.6000044901322970    0.6570790543819492    0.7939007906041011    As010
    0.5185167334752904    0.8204002276059857    0.5226175765020459    As011
