Na6 Ga1 Cu1 Ge3 Se11                    
   1.00000000000000     
     6.7441850836509971    0.0021938713501749   -0.5326324318233313
     0.2249072069025117    8.5355467482671639    0.5180671673482662
    -0.0535235941799736    0.4031245144411721   10.5456832168218781
   Na   Ga   Cu   Ge   Se
     6     1     1     3    11
Direct
  0.8835776106403356  0.6778877974239347  0.3478292765837787
  0.6565657304924349  0.6917865190772058  0.7730678748958839
  0.1843778759457127  0.2320689923852527  0.0775388121280148
  0.6678564823076326  0.0626559059054648  0.0008029848449408
  0.1406183363974028  0.4808296421798166  0.6675936889205822
  0.9315499198103112  0.0744587221313544  0.4130681682114166
  0.1446676808167569  0.9714750762324943  0.7201959951258945
  0.6709822298803844  0.4386447959078386  0.0842097699996430
  0.1597349607401116  0.7354324181332121  0.0733541077706157
  0.6099837843031136  0.2490678603431713  0.7009146047358445
  0.4193609052216544  0.4031215246485971  0.3473295180372199
  0.4765782190850545  0.6309132994849197  0.1959439643028368
  0.6276015143434409  0.4704857774486502  0.5356513494102837
  0.9622476600552730  0.5366749584102624 -0.0114244702840700
  0.9498289890801734  0.1887006509514013  0.7933027862860126
  0.5844583326320956  0.2148519068914236  0.2379806337784998
  0.0933333866282385  0.3809547141301074  0.3950668483667485
  0.3529115284361239  0.8578159289384811  0.9098433854334910
  0.4723692513427307  0.3690080799709420  0.8690238985136307
  0.9619082356171449  0.7973362430855387  0.6008022239390084
  0.4437400019653037  0.0408927090987847  0.6055281467036742
 -0.0040611403228825  0.9314463397633012  0.1717467602232204
 
  0.00000000E+00  0.00000000E+00  0.00000000E+00
  0.00000000E+00  0.00000000E+00  0.00000000E+00
  0.00000000E+00  0.00000000E+00  0.00000000E+00
  0.00000000E+00  0.00000000E+00  0.00000000E+00
  0.00000000E+00  0.00000000E+00  0.00000000E+00
  0.00000000E+00  0.00000000E+00  0.00000000E+00
  0.00000000E+00  0.00000000E+00  0.00000000E+00
  0.00000000E+00  0.00000000E+00  0.00000000E+00
  0.00000000E+00  0.00000000E+00  0.00000000E+00
  0.00000000E+00  0.00000000E+00  0.00000000E+00
  0.00000000E+00  0.00000000E+00  0.00000000E+00
  0.00000000E+00  0.00000000E+00  0.00000000E+00
  0.00000000E+00  0.00000000E+00  0.00000000E+00
  0.00000000E+00  0.00000000E+00  0.00000000E+00
  0.00000000E+00  0.00000000E+00  0.00000000E+00
  0.00000000E+00  0.00000000E+00  0.00000000E+00
  0.00000000E+00  0.00000000E+00  0.00000000E+00
  0.00000000E+00  0.00000000E+00  0.00000000E+00
  0.00000000E+00  0.00000000E+00  0.00000000E+00
  0.00000000E+00  0.00000000E+00  0.00000000E+00
  0.00000000E+00  0.00000000E+00  0.00000000E+00
  0.00000000E+00  0.00000000E+00  0.00000000E+00
