Cs3 Ti2 F9
1.0
   5.7671651840209952    0.0000000000000000    2.3005197048187265
   2.4255474464536211    5.2451224743091522    2.3028640747070312
   0.0000000000000000    0.0000000000000000    8.4162216186523438
Cs Ti F
3 2 9
direct
   0.4795790016651154    0.7204045653343201    0.0330106094479561 Cs
   0.6849128603935242    0.9262569546699524    0.4157883822917938 Cs
   0.2741774320602417    0.5141417384147644    0.6512514352798462 Cs
   0.8667664527893068    0.1077224090695381    0.8714129328727722 Ti
   0.0922294035553932    0.3329717516899108    0.1961747854948044 Ti
   0.1966204494237901    0.9879546761512755    0.3315983414649963 F
   0.4802047312259675    0.2202387750148773    0.0326946973800659 F
   0.1965586245059968    0.4363630115985870    0.3304606676101685 F
   0.7466818690299988    0.4368152618408203    0.3321034610271454 F
   0.9797864556312562    0.7197322845458984    0.0336366109549999 F
   0.7632813453674318    0.4519867300987244    0.7346738576889038 F
   0.2121440321207047    0.0028216838836670    0.7349345684051514 F
   0.9804777503013612    0.2199498116970062    0.0328997932374477 F
   0.7630175352096559    0.0029256076086313    0.7356018424034119 F
