Na1 Au1 Se2
1.0
   4.1181573867797852    0.0000000000000000    1.8001899719238277
   1.5293402382387016    3.2590077450002974   -0.0064872507937252
   0.0000000000000000    0.0000000000000000    7.5346059799194336
Na Au Se
1 1 2
direct
   0.9621527791023254    0.8530886769294739    0.5690913200378418 Na
   0.9584531784057617    0.8513835668563844    0.0661038160324097 Au
   0.1622237265110016    0.2521696686744690    0.8209140300750732 Se
   0.7517132759094238    0.4535332322120667    0.3199593126773834 Se
