Generated by VASPKIT code
 1.000000
    5.9921102523803711    0.0000000000000000    0.1133465170860286
    0.0792906257013196    5.3075222887902092   -2.7859494686126705
    0.0000000000000000    0.0000000000000000    6.8444919586181641
   Ta   Bi   O 
     1     3     8
Direct
    0.6857149004936218    0.4269472956657410    0.8824184536933899    Ta001
    0.2129178494215012    0.6598920226097107    0.1919548213481903    Bi001
    0.1693177819252014    0.3721391558647156    0.5788287520408630    Bi002
    0.6779583692550659    0.0117890359833837    0.1507901400327682    Bi003
    0.8418117165565491    0.1947466880083084    0.9539029002189636     O001
    0.8187327384948730    0.2632788717746735    0.5779489874839783     O002
    0.4032667875289917    0.2666152119636536    0.8333125710487366     O003
    0.1041248366236687    0.6814215779304504    0.5010245442390442     O004
    0.5950500369071960    0.6681646108627319    0.2192882150411606     O005
    0.5302718877792358    0.7240757942199707    0.8498576879501343     O006
    0.2548856735229492    0.0535655207931995    0.2639406323432922     O007
    0.9424584507942200    0.6882665157318115    0.9615615010261536     O008
