Na22 Fe4 O19
1.0
   6.4691214561462411    0.0000000000000000    0.8112212419509888
  -0.8059493556089246    9.1715382034416120    0.6090401411056516
   0.0000000000000000    0.0000000000000000   11.5967435836791992
Na Fe O
22 4 19
direct
   0.7891405224800111    0.9148379564285277    0.0143963033333421 Na
   0.2905706763267517    0.5479272603988647    0.4486650526523590 Na
   0.1491232216358185    0.6794075965881348    0.0202499162405729 Na
   0.0753951668739319    0.4499185979366302    0.2302619665861130 Na
   0.7748072147369385    0.7188687324523926    0.2500944137573242 Na
   0.0387002378702164    0.1422917842864990    0.8349460363388062 Na
   0.5722772479057312    0.0221277084201574    0.3875586390495300 Na
   0.7941021323204039    0.4474808871746063    0.7141253948211670 Na
   0.7441231012344360    0.3960475921630859    0.3975060880184174 Na
   0.2737535536289215    0.7896854281425475    0.2464381158351898 Na
   0.4125761985778809    0.3628183007240295    0.8922939300537109 Na
   0.3378575444221497    0.9383869767189025    0.6948381662368774 Na
   0.9721604585647584    0.0715635195374489    0.2057291865348816 Na
   0.8610078096389772    0.0829221010208130    0.5945090055465698 Na
   0.7374987006187439    0.6826479434967041    0.5109524130821228 Na
   0.4995384514331818    0.2891657352447510    0.1922845691442490 Na
   0.9169442653656007    0.7414739131927489    0.7857681512832642 Na
   0.1710922271013260    0.8159222006797791    0.4765115380287170 Na
   0.9061479568481446    0.3871237039566040    0.9697676301002502 Na
   0.5295348763465881    0.7580818533897399    0.8635414242744446 Na
   0.3391498029232025    0.9979961514472961    0.0609524175524712 Na
   0.3771542012691498    0.2792884409427643    0.6200417876243591 Na
   0.6169709563255310    0.0998742207884789    0.8343538641929626 Fe
   0.2343205362558365    0.5652135610580444    0.7104946970939636 Fe
   0.5709587335586548    0.5647224783897400    0.0590947456657887 Fe
   0.1904508173465729    0.1635543555021286    0.4008850455284119 Fe
   0.0018470287322998    0.6110076904296875    0.3649390339851379 O
   0.4897462129592896    0.5330156683921813    0.6378543376922607 O
   0.6959412097930908    0.5582274794578552    0.9073166847229004 O
   0.3410952091217041    0.0753003582358360    0.8655717372894287 O
   0.3022356629371643    0.0781025364995003    0.2711687982082367 O
   0.5100316405296326    0.7763624191284180    0.3941697478294373 O
   0.6605221033096313    0.2176610380411148    0.7029896974563599 O
   0.0281752310693264    0.8657769560813904    0.1198897063732147 O
   0.5034869909286499    0.7523922324180603    0.0700280740857124 O
   0.7220263481140137    0.1573795080184937    0.9668406248092651 O
   0.2411306798458100    0.7148940563201904    0.8071672320365906 O
   0.7690911889076233    0.9474645853042601    0.7902441620826721 O
   0.9022734165191652    0.1702094674110413    0.3859428465366364 O
   0.2012169510126114    0.0558566339313984    0.5423020124435425 O
   0.1345999091863632    0.3873686790466309    0.7828040719032288 O
   0.3917768299579620    0.3169773221015930    0.4036089181900024 O
   0.3212612867355347    0.4507541656494141    0.0744154155254364 O
   0.0373836234211922    0.6310955882072449    0.6228007078170776 O
   0.7567310333251953    0.4840500652790070    0.1498890817165375 O
