Na1 Y1 F4
1.0
   3.7603638172149658    0.0000000000000000    1.1751414537429812
   1.7556161815714122    3.3159623578829951    1.1758019924163816
   0.0000000000000000    0.0000000000000000    6.7951893806457520
Na Y F
1 1 4
direct
   0.6492564678192139    0.1246551871299744    0.7326288819313049 Na
   0.1482984423637390    0.6246362924575806    0.2332286089658737 Y
   0.7829851508140564    0.2595314681529999    0.3314003944396973 F
   0.5155298709869386    0.9905994534492492    0.1342420428991317 F
   0.0336342453956604    0.5095433592796326    0.5805345177650452 F
   0.2644880115985870    0.7398395538330077    0.8856335878372191 F
