Generated by VASPKIT code
 1.000000
    5.5180163778314384   -0.0330484202351108   -0.0816694035357799
    2.8334289952645308    5.1737323476822681    2.7438991325474351
    0.0806851133140365   -0.0273406371677860    5.5190967999109724
   Zn   O 
     1     4
Direct
    0.6947896053839772    0.2838305374340505    0.1756158143589460    Zn001
    0.3619240970944078    0.5321908383617121    0.8431345493992430     O001
    0.0275795167303522    0.0371927333361266    0.0909893388541177     O002
    0.7797155681578779    0.5327813017532971    0.2608875982323206     O003
    0.6098012711125953    0.0369134656542439    0.5089518676271297     O004
