Na4 Fe4 O8
1.0
   5.7379379272460938    0.0000000000000000   -2.7760603427886967
  -2.4298516241670409    6.7137768461195702   -0.0115444576367747
   0.0000000000000000    0.0000000000000000    5.8261995315551758
Na Fe O
4 4 8
direct
   0.8101016879081726    0.6702008247375487    0.0496208667755127 Na
   0.3105597794055939    0.2953587472438812    0.6410555243492126 Na
   0.3459184765815735    0.0439644642174244    0.1400756388902664 Na
   0.8320959210395813    0.4224731922149658    0.5629935264587401 Na
   0.8311173915863037    0.9216029644012451    0.5465031266212463 Fe
   0.3411461114883423    0.8060475587844849    0.6496974825859070 Fe
   0.3310004174709320    0.5611224174499512    0.1531151980161667 Fe
   0.8509044051170349    0.1810103803873062    0.0556344054639340 Fe
   0.2340291589498520    0.7470868229866027    0.2936574816703796 O
   0.2062980830669403    0.2924669981002808    0.1981447339057922 O
   0.2698438465595245    0.5773154497146606    0.8046056628227233 O
   0.7109555006027222    0.9282857179641724    0.8066161870956420 O
   0.7192672491073608    0.3566303551197052    0.8820586800575255 O
   0.6796113848686218    0.6602022051811217    0.3627746999263763 O
   0.1763557046651839    0.9685870409011840    0.7025567293167114 O
   0.7783911824226379    0.1229567751288414    0.3405488431453705 O
