Generated by VASPKIT code
 1.000000
    6.3377213478088379    0.0000000000000000    0.4296581149101258
    0.4657841522023885    5.6949539410714776   -1.0929069519042960
    0.0000000000000000    0.0000000000000000    8.3851089477539062
   Ti   Zn   Si   H    O 
     1     2     2     1    11
Direct
    0.6997926235198975    0.0869651511311531    0.7932864427566528    Ti001
    0.9278250336647034    0.3979795575141907    0.1179563626646996    Zn001
    0.4773749113082886    0.2954891026020050    0.5179784893989563    Zn002
    0.1941980123519897    0.1436621546745300    0.8058813810348511    Si001
    0.6449874043464661    0.7647672891616821    0.4099556803703308    Si002
    0.0246278513222933    0.2721284031867981    0.3654400408267975     H001
    0.0617917217314243    0.1856316924095154    0.2607996761798859     O001
    0.6645212769508362    0.3364243209362030    0.6997130513191223     O002
    0.5305092334747314    0.9976987838745116    0.3512738645076752     O003
    0.4684325158596039    0.5685709118843079    0.4072134196758270     O004
    0.4170194864273071    0.9901351332664490    0.8393090963363647     O005
    0.6896209120750427    0.2585354149341583    0.0099088978022337     O006
    0.9972310662269592    0.9719330668449402    0.8244780302047729     O007
    0.7410581707954407    0.8356844782829285    0.5936101078987122     O008
    0.1518279463052750    0.3964070975780487    0.9427392482757568     O009
    0.2064602971076965    0.2216984033584595    0.6259760260581970     O010
    0.8557815551757812    0.6809327006340027    0.2784840166568756     O011
