Generated by VASPKIT code
 1.000000
    5.1940924395445363    0.0695200639340085    0.4300196741573341
   -0.9136929241016410    5.2552286121709031   -1.0519601997308332
   -0.1220822116174638    0.3405809536290725    8.1377336567704628
   Ti   Si   O 
     1     3     9
Direct
    0.2018413404609518    0.8040413589817296    0.8678584492619312    Ti001
    0.7767593809517085    0.6656316461397638    0.6974632363622607    Si001
    0.2315540508457251    0.3805356457400181    0.1276158975712448    Si002
    0.7334328692761142    0.5256047756474502    0.3335343687431777    Si003
    0.2383576121704066    0.1182654218763878    0.9995380900040974     O001
    0.0204565416611076    0.8995175368805302    0.6878468828076642     O002
    0.4426573872972226    0.3703721749864466    0.2706871282567775     O003
    0.7530946519329620    0.4573332219693491    0.5259813233245636     O004
    0.7877251028410984    0.8157574609818357    0.3221937228967157     O005
    0.8872345936050864    0.5552639674989980    0.8516938127263415     O006
    0.4970412363165747    0.7611370185322467    0.7396567040748380     O007
    0.3011958616249804    0.6357807123446562    0.0439287134269045     O008
    0.9414100484181873    0.3524407760054470    0.2249913298235599     O009
