Na4 Tm1 Sc1 I10                         
   1.00000000000000     
     8.0618592434748155    0.2375519671827050   -0.1281460001083688
    -2.5651150675271306    5.6630387395552804   -0.0375867278639796
    -0.0253418875127525    0.0273139593780994   14.4097513871053806
   Na   Tm   Sc   I 
     4     1     1    10
Direct
  0.7404261477508965  0.7048893464038709  0.9428770102478841
  0.5801074670985772  0.1227573091963629  0.6908529557440943
  0.9099216237322455  0.2868639715890299  0.1546884526027803
  0.0234204015993431  0.8490350754764193  0.5850334073773972
  0.1904851738307798  0.9256728244967521  0.3138007000581051
  0.1783211934493651  0.3829853085463111  0.8244501011054540
  0.1912105819456581  0.4257108794457253  0.3167882672761577
  0.8342873771823138  0.7474854672466513  0.3996536915624519
  0.3354845586188324  0.5044770625241547 -0.0024167420308501
  0.5133277232744898  0.0827310321665009  0.2026740703122439
 -0.0049403287398496  0.3334615321076356  0.6435443208793353
  0.5250251459401457  0.5947161427594142  0.7346850529017509
  0.1703718739507985  0.9194723838122650  0.8096583640807977
  0.9811257908466106  0.8220128215650259  0.1256846848648989
  0.8227917273367248  0.2457433281803969  0.9059140650711905
  0.3941506029397521  0.0300989664560873  0.4942034412458771
 
  0.00000000E+00  0.00000000E+00  0.00000000E+00
  0.00000000E+00  0.00000000E+00  0.00000000E+00
  0.00000000E+00  0.00000000E+00  0.00000000E+00
  0.00000000E+00  0.00000000E+00  0.00000000E+00
  0.00000000E+00  0.00000000E+00  0.00000000E+00
  0.00000000E+00  0.00000000E+00  0.00000000E+00
  0.00000000E+00  0.00000000E+00  0.00000000E+00
  0.00000000E+00  0.00000000E+00  0.00000000E+00
  0.00000000E+00  0.00000000E+00  0.00000000E+00
  0.00000000E+00  0.00000000E+00  0.00000000E+00
  0.00000000E+00  0.00000000E+00  0.00000000E+00
  0.00000000E+00  0.00000000E+00  0.00000000E+00
  0.00000000E+00  0.00000000E+00  0.00000000E+00
  0.00000000E+00  0.00000000E+00  0.00000000E+00
  0.00000000E+00  0.00000000E+00  0.00000000E+00
  0.00000000E+00  0.00000000E+00  0.00000000E+00
