Na18 W4 N14
1.0
   6.2499303817749015    0.0000000000000000    0.9314996600151063
   1.0014261596179408    8.4599853718420199    1.2970318794250477
   0.0000000000000000    0.0000000000000000   11.5486516952514648
Na W N
18 4 14
direct
   0.0872592180967331    0.5828630924224854    0.2277774512767792 Na
   0.6645800471305847    0.6079406738281250    0.5407203435897827 Na
   0.2851102352142334    0.4459227323532104    0.6913726925849915 Na
   0.9318095445632935    0.0470371469855309    0.3777070641517639 Na
   0.8338688611984253    0.4617880284786224    0.8119181990623474 Na
   0.5856025218963623    0.2966877222061157    0.4100431799888611 Na
   0.9937474131584167    0.3210029900074005    0.1059715598821640 Na
   0.6829166412353516    0.7820946574211122    0.2931194603443146 Na
   0.8985853195190430    0.8496102094650269    0.6696372032165527 Na
   0.3581145107746124    0.0278685763478279    0.5657436251640320 Na
   0.9970980286598206    0.9707580804824829    0.1138901710510254 Na
   0.2200711369514465    0.1200273483991623    0.8364309668540955 Na
   0.1127870678901672    0.3964067697525024    0.4502677917480469 Na
   0.7009627223014832    0.0565088354051113    0.9157537221908569 Na
   0.4291949272155762    0.8151983618736267    0.0278880484402180 Na
   0.4098374843597412    0.3639213740825653    0.9584813117980957 Na
   0.5602715611457825    0.4798688590526581    0.1943158209323883 Na
   0.3579927980899811    0.7320756316184998    0.7945172190666199 Na
   0.4132141768932343    0.1222935169935226    0.2131733447313309 W
   0.7891661524772644    0.2235905528068542    0.6559183001518250 W
   0.2456651329994201    0.7436755299568176    0.4382385909557343 W
   0.9216089844703674    0.7006354331970215    0.9525697231292725 W
   0.7972316145896912    0.6741276383399963    0.1094133183360100 N
   0.6978313326835632    0.7301119565963745    0.8594572544097900 N
   0.1061243861913681    0.5190501213073730    0.9143876433372498 N
   0.2538745403289795    0.3101857602596284    0.2552644610404968 N
   0.9681404829025269    0.7166783213615417    0.4206449687480927 N
   0.7057048678398132    0.1492376029491425    0.2105440646409988 N
   0.4284084439277649    0.5707920193672180    0.3898709118366241 N
   0.0717411264777183    0.8761247992515564    0.9256479144096375 N
   0.3579733073711395    0.0937555134296417    0.0645428523421288 N
   0.7195221781730652    0.0995603501796722    0.5575456619262695 N
   0.3267905116081238    0.9436780214309692    0.3368056714534760 N
   0.0666658133268356    0.2548779547214508    0.6552667617797852 N
   0.5927690267562866    0.2905193567276001    0.7732299566268921 N
   0.2808459103107452    0.7503927946090699    0.5948334336280823 N
