Na4 Zn2 Si2 O8
1.0
   5.1630048751831046    0.0000000000000000   -0.2957741916179660
   0.2371951279566390    6.2333522299832280   -0.9688382744789142
   0.0000000000000000    0.0000000000000000    6.2941617965698242
Na Zn Si O
4 2 2 8
direct
   0.4217318892478943    0.3943771123886108    0.5256401300430298 Na
   0.9472560286521912    0.5907009840011597    0.3455592691898346 Na
   0.4345195293426514    0.9010018110275267    0.0931203439831733 Na
   0.9535655379295349    0.1225257739424706    0.8019177317619324 Na
   0.0025562047958374    0.0451325252652168    0.2852620482444763 Zn
   0.3667139112949371    0.3683673441410064    0.9867717027664186 Zn
   0.8577524423599243    0.6382648944854735    0.8627350330352784 Si
   0.5119397640228271    0.9279990792274474    0.5829049348831177 Si
   0.2469085752964020    0.8557633161544800    0.4503454864025117 O
   0.6540513038635254    0.5574709773063659    0.0236272327601909 O
   0.1816515326499939    0.2863571047782898    0.2224224507808686 O
   0.6880479454994202    0.0529333055019379    0.4336919188499451 O
   0.0781436488032341    0.4594380855560303    0.7689804434776306 O
   0.4791914820671082    0.0888797864317894    0.8096957206726075 O
   0.9829125404357910    0.8519946932792662    0.9985591769218446 O
   0.6814916133880615    0.7044799923896790    0.6430656313896179 O
