Generated by VASPKIT code
 1.000000
    4.7089496364290415    0.0047089857388095   -0.0217140596877741
   -0.0035090089290532    9.4723939210257129   -0.3199541924273827
    0.0210562783394504   -0.2686923009599643   11.7496264897792830
   K    Sn   As
     3     2     6
Direct
    0.3925153664277009    0.3562667638602826    0.9559551550585448     K001
    0.3879847899455945    0.6826061476506979    0.2784734966135266     K002
    0.3877538715379591    0.0599613709139251    0.6554259835091105     K003
    0.8934506170471247    0.1558143153096547    0.0987639213469352    Sn001
    0.3916433764675274    0.6400166477998713    0.6076277571220514    Sn002
    0.8853875116023457    0.7766488091230012    0.5184403038169538    As001
    0.3910461882870895    0.3697521892262531    0.5443640402100329    As002
    0.3754570440301349    0.0193045782626470    0.1887734196779537    As003
    0.8927382668213135    0.4291256994382854    0.1721776479437541    As004
    0.3911754009338391    0.6600554093478732    0.8328440891886619    As005
    0.8906416498285632    0.1228953707805558    0.8727164959094640    As006
