Na6 Fe1 Cl9
1.0
   6.5443315505981454    0.0000000000000000    1.8090634346008303
  -0.8109516550902280    6.7028565376795948   -0.8785015940666190
   0.0000000000000000    0.0000000000000000    8.8505611419677734
Na Fe Cl
6 1 9
direct
   0.9740068912506102    0.8546957373619080    0.2504616379737854 Na
   0.4011197388172150    0.9725957512855531    0.4653672873973846 Na
   0.7347708940505981    0.3084461987018586    0.1480079293251038 Na
   0.0710601881146431    0.6404637694358827    0.8099141120910645 Na
   0.6271207928657532    0.5322551727294922    0.5907964110374451 Na
   0.8514376282691956    0.0889038741588593    0.6996678709983826 Na
   0.2991766333580017    0.1983535140752793    0.9272419810295107 Fe
   0.7823957204818726    0.1898606568574906    0.4216201305389404 Cl
   0.1356487572193146    0.4974461495876313    0.0690306052565575 Cl
   0.0140303382650018    0.7562811374664308    0.5364274978637695 Cl
   0.9543319940567015    0.9957443475723268    0.9736954569816589 Cl
   0.4474785029888153    0.8939123749732971    0.7633638381958008 Cl
   0.5862347483634949    0.6490825414657594    0.3164115548133850 Cl
   0.6524289250373840    0.3984903395175934    0.8704764246940613 Cl
   0.2462908774614334    0.2981511652469635    0.6779855489730835 Cl
   0.3490201830863953    0.0936649516224861    0.1705588698387146 Cl
