Cs3 Na2 Y1 Mo1 Br10 O1                  
   1.00000000000000     
     9.3667663814552427    0.0486135409746636    0.4791077430956433
     2.9864470475839613    7.2222949778245944    0.1534000478813506
     0.0495044052449011    0.1426101774338596   10.0296960458256148
   Cs   Na   Y    Mo   Br   O 
     3     2     1     1    10     1
Direct
  0.9718428415477671  0.7507329796177523  0.5935153251107596
  0.5738042016754161  0.4435728740381230  0.4790103442105783
  0.8345392277598007  0.8496633616526224  0.1125953307547400
  0.3166582042231671  0.9501377336022578  0.7885443700924897
  0.3175838617882216  0.3831106262362874  0.0300456736824030
  0.2791804513988380  0.0744557331628271  0.4032901727526249
  0.7424803564191492  0.3773588827114225  0.9083488969198663
  0.0127163211836372  0.2754868181927530  0.9532168789757235
  0.1696742263169203  0.4845398608553962  0.2912288806866319
  0.6763551594695788  0.1477586611795380  0.7873219191379708
  0.6009700938473611  0.4262665485440651  0.1265441037906842
  0.1726631632600006  0.7100629351321310  0.8916922347264418
  0.2582500284194912  0.2874346517695462  0.6349111495742609
  0.6569162526200489  0.6749521491900518  0.7855563423483302
  0.3784614635414620  0.0019950091351439  0.1106695114322318
  0.6092088636542975  0.9492245097110794  0.4177521717902301
  0.9707897831400800  0.1219720449415677  0.3605942706227743
  0.2971185431860713  0.8620067453619916  0.5225449554514044
 
  0.00000000E+00  0.00000000E+00  0.00000000E+00
  0.00000000E+00  0.00000000E+00  0.00000000E+00
  0.00000000E+00  0.00000000E+00  0.00000000E+00
  0.00000000E+00  0.00000000E+00  0.00000000E+00
  0.00000000E+00  0.00000000E+00  0.00000000E+00
  0.00000000E+00  0.00000000E+00  0.00000000E+00
  0.00000000E+00  0.00000000E+00  0.00000000E+00
  0.00000000E+00  0.00000000E+00  0.00000000E+00
  0.00000000E+00  0.00000000E+00  0.00000000E+00
  0.00000000E+00  0.00000000E+00  0.00000000E+00
  0.00000000E+00  0.00000000E+00  0.00000000E+00
  0.00000000E+00  0.00000000E+00  0.00000000E+00
  0.00000000E+00  0.00000000E+00  0.00000000E+00
  0.00000000E+00  0.00000000E+00  0.00000000E+00
  0.00000000E+00  0.00000000E+00  0.00000000E+00
  0.00000000E+00  0.00000000E+00  0.00000000E+00
  0.00000000E+00  0.00000000E+00  0.00000000E+00
  0.00000000E+00  0.00000000E+00  0.00000000E+00
