Na7 Sn1 Bi1 O8                          
   1.00000000000000     
     5.7229576496764158    0.0846321840073590    1.4566842084179528
     1.1151787836788001    5.8729962957415314    0.6241488259163516
    -0.1095113102070028   -0.2517808243085045    7.5346669767683396
   Na   Sn   Bi   O 
     7     1     1     8
Direct
  0.8211661595860484  0.9822198958011201  0.9415523027017205
  0.7083444366995141  0.7096651255282813  0.4173876593779798
  0.3762272884959559  0.0960757646083338  0.7342372852420377
  0.9152264743898065  0.1338854356951153  0.5608055475564320
  0.1692445746692519  0.6447208586311116  0.6208503971618525
  0.4388085341512254  0.3205612978762750  0.3153728523196009
  0.0664325070357172  0.4519776701571879  0.0457741424705309
  0.6414145229050080  0.5507315384422473  0.8121380907270471
  0.3195423899953282  0.8503962566709077  0.1731525161963650
  0.5529329292130311  0.4140230103898044  0.6012779796544454
  0.2818588948517031  0.7333908386533918  0.9104607564803141
  0.6504028691913092  0.6267719285269151  0.1045538111532131
  0.7648700001283404  0.8224549294221741  0.6942426189226599
  0.3281281731349925  0.9722537703320777  0.4267312804426331
  0.1082604842792766  0.6312708817179769  0.3037848753567065
  0.9384311513834254  0.3109005193554404  0.8172083566687874
  0.3941357308140616  0.1508473477650398  0.0484442989033933
 
  0.00000000E+00  0.00000000E+00  0.00000000E+00
  0.00000000E+00  0.00000000E+00  0.00000000E+00
  0.00000000E+00  0.00000000E+00  0.00000000E+00
  0.00000000E+00  0.00000000E+00  0.00000000E+00
  0.00000000E+00  0.00000000E+00  0.00000000E+00
  0.00000000E+00  0.00000000E+00  0.00000000E+00
  0.00000000E+00  0.00000000E+00  0.00000000E+00
  0.00000000E+00  0.00000000E+00  0.00000000E+00
  0.00000000E+00  0.00000000E+00  0.00000000E+00
  0.00000000E+00  0.00000000E+00  0.00000000E+00
  0.00000000E+00  0.00000000E+00  0.00000000E+00
  0.00000000E+00  0.00000000E+00  0.00000000E+00
  0.00000000E+00  0.00000000E+00  0.00000000E+00
  0.00000000E+00  0.00000000E+00  0.00000000E+00
  0.00000000E+00  0.00000000E+00  0.00000000E+00
  0.00000000E+00  0.00000000E+00  0.00000000E+00
  0.00000000E+00  0.00000000E+00  0.00000000E+00
