Na11 Fe1 Sn2 Se10
1.0
   7.4697804450988761    0.0000000000000000    0.1590344309806824
   0.0760997615448236    7.4867219544428574    2.4841020107269296
   0.0000000000000000    0.0000000000000000   11.8746805191040039
Na Fe Sn Se
11 1 2 10
direct
   0.2186194956302643    0.3718043565750122    0.1178673058748245 Na
   0.9082804918289185    0.0274091567844152    0.1585355848073959 Na
   0.5647689700126648    0.4422233104705811    0.5493270754814148 Na
   0.1800965964794159    0.1063902825117111    0.5907793045043945 Na
   0.6517936587333679    0.3273018002510071    0.9056497812271117 Na
   0.6051436662673950    0.9181089401245118    0.7596659660339355 Na
   0.2183585017919540    0.5738755464553834    0.7368134856224058 Na
   0.1939402669668198    0.7638584375381470    0.3715803325176239 Na
   0.5268260836601257    0.6689462661743165    0.1710186004638671 Na
   0.9230592846870422    0.6611550450325012    0.9425857067108153 Na
   0.5281808376312256    0.1353833824396133    0.3288042545318604 Na
   0.7331390976905823    0.8158565759658815    0.5342779755592346 Fe
   0.2301843911409378    0.9952062368392945    0.9410414099693297 Sn
   0.9330528378486633    0.4079156517982483    0.3401513099670410 Sn
   0.8130801320075989    0.1398647278547287    0.5128902792930603 Se
   0.3797023892402649    0.2284971922636032    0.7653633356094360 Se
   0.8023175001144409    0.3805569708347321    0.1483028382062912 Se
   0.3406350314617157    0.6831451654434205    0.9403342008590697 Se
   0.2767666578292847    0.4071114659309388    0.3590925335884094 Se
   0.4162737429141998    0.8296598196029663    0.5403206348419189 Se
   0.3240390121936798    0.0180959105491638    0.1443677395582199 Se
   0.8846184611320496    0.0239647701382637    0.9229002594947814 Se
   0.8410771489143372    0.6208295822143556    0.7166132330894470 Se
   0.8051636815071106    0.7150614857673646    0.3537464439868927 Se
