Generated by VASPKIT code
 1.000000
    5.4430690437790021    0.0756996284341383   -1.1632484731366945
   -2.4762899743790667    4.3977702934147347   -1.7680534588549510
    0.0107848852999503    0.0186481136547607    5.3996775874890961
   Fe   O 
     2     5
Direct
    0.4931041407675303    0.9019785166543332    0.6177589328726489    Fe001
    0.2474861331775497    0.4631860090160330    0.0043212398504588    Fe002
    0.5552696895446930    0.6233154396059403    0.3435758453013180     O001
    0.8956678486136858    0.1240915023712094    0.9306668993540517     O002
    0.4048941410972897    0.2125979967082937    0.7933848348236959     O003
    0.3174209928966760    0.6701267961058759    0.7907668172710768     O004
    0.1988844939258821    0.7679432899795148    0.2723459492567692     O005
