Generated by VASPKIT code
 1.000000
    4.5776760647133266    0.0061314795645037   -0.0042132353596517
    2.2845458808441603    3.9673444372882365   -0.0033774373880601
   -0.0014118503809799   -0.0173332112068441   10.9204921368159571
   La   Te   Br
     1     2     1
Direct
    0.4045983177647049    0.5193254908920596    0.2477579697590137    La001
    0.7373441677620494    0.8527532477347363    0.0788248218154638    Te001
    0.0712835628835285    0.1863335086317940    0.4164398620884440    Te002
    0.4006651903681381    0.5214180183029320    0.7471522442227293    Br001
