Na3 Ca1 Bi1 O5
1.0
   5.6484427452087402    0.0000000000000000    1.1082227230072010
   1.5666542302773945    3.9737560840466242    1.8606892824172969
   0.0000000000000000    0.0000000000000000    5.7807722091674805
Na Ca Bi O
3 1 1 5
direct
   0.0007333748508245    0.6477937698364257    0.5768052935600281 Na
   0.1885397732257844    0.8501203060150145    0.9836922883987427 Na
   0.3834911882877350    0.0510207153856754    0.3873862326145172 Na
   0.5780590772628785    0.2533758878707885    0.7897471785545349 Ca
   0.7990841269493103    0.4445434808731079    0.1855694204568863 Bi
   0.1583780944347382    0.3610451817512512    0.9910463094711304 O
   0.6064673066139221    0.7160280942916869    0.8374686837196350 O
   0.7829601168632507    0.9591171145439147    0.1701449453830720 O
   0.9614607095718384    0.1841068118810653    0.5416241884231567 O
   0.4442551434040070    0.5219276547431946    0.3838225007057190 O
