Na4 Zn3 Ge2 Se9
1.0
   7.4761476516723633    0.0000000000000000    0.7191839814186080
  -3.5724911532134769    6.3055823837872955   -1.9926788806915277
   0.0000000000000000    0.0000000000000000   10.4130144119262695
Na Zn Ge Se
4 3 2 9
direct
   0.2806722819805145    0.3583067953586579    0.0806992948055267 Na
   0.6273646950721741    0.2567390203475952    0.7823470234870911 Na
   0.6273046135902405    0.4350651800632477    0.3791634142398834 Na
   0.2980575859546661    0.8115879297256470    0.4186414480209351 Na
   0.9463546872138977    0.9132061004638672    0.7204915285110474 Zn
   0.6151725649833679    0.0017563104629517    0.0638345852494240 Zn
   0.9773782491683960    0.6879209280014038    0.0648548752069473 Zn
   0.9352875947952271    0.1117653548717499    0.4120785593986511 Ge
   0.2680701911449432    0.5497470498085022    0.7297623753547668 Ge
   0.6001446247100830    0.8513919711112977    0.8099194169044495 Se
   0.9413142800331116    0.8405052423477173    0.4828816950321198 Se
   0.6701453328132629    0.1666748374700546    0.4996337890625000 Se
   0.6665180325508118    0.3594952225685120    0.0913621336221695 Se
   0.2596517205238342    0.4454376101493835    0.4858831167221069 Se
   0.3002245724201202    0.7609334588050842    0.1468693315982819 Se
   0.0160719566047192    0.6655557155609131    0.8090788125991821 Se
   0.2241557091474533    0.2643789052963257    0.8088512420654299 Se
   0.9237221479415894    0.0114274080842733    0.1622701883316040 Se
