Rb4 Mo1 O5
1.0
   5.2689881324768058    0.0000000000000000   -2.6419188976287855
   2.7151417719485091    5.9546271936149262   -1.2774831056594858
   0.0000000000000000    0.0000000000000000    6.7193593978881836
Rb Mo O
4 1 5
direct
   0.4152039289474487    0.0898942202329635    0.2037875950336456 Rb
   0.6161416769027710    0.5014164447784424    0.0137338265776634 Rb
   0.0256879292428493    0.2790435552597046    0.6159718036651611 Rb
   0.2249173969030380    0.6918920278549194    0.4258417189121246 Rb
   0.8589074015617371    0.8905010819435119    0.8165013194084167 Mo
   0.7273414134979248    0.7374441027641295    0.5360097289085388 O
   0.0186990369111300    0.6043843030929565    0.9707253575325012 O
   0.8555155396461487    0.0429724231362343    0.0950269103050232 O
   0.1740980148315430    0.8899284005165100    0.8151325583457947 O
   0.5756492018699646    0.1746383011341095    0.6606190204620361 O
