Generated by VASPKIT code
 1.000000
    8.5625864542966781    0.0518169482517527   -2.0623724645517121
   -3.7164942139956239    7.8551276300209674   -1.7933798949829132
   -0.1658284489196827   -0.2585815134173892   10.6264129201808242
   Sn   As   Au
     1     8     2
Direct
    0.6477720352369913    0.5823148172626930    0.8772547137580077    Sn001
    0.9662541924568887    0.6893245658678664    0.8515042930082058    As001
    0.5242484127784942    0.6425241015423069    0.6436861869517070    As002
    0.2418800045419590    0.9066041679035091    0.3441307897195492    As003
    0.7456700243494169    0.4477892333809129    0.3466196291631040    As004
    0.5320174517214981    0.2491444064335113    0.8551757924062354    As005
    0.5998890853931086    0.7723869979259855    0.0874532181591801    As006
    0.1118492891720700    0.2993997956708482    0.1318866117589600    As007
    0.8824337078008899    0.0757901053292140    0.5767791845047809    As008
    0.7782202181961749    0.5803856185564737    0.5934608691214825    Au001
    0.8828932842857903    0.3222278999807526    0.5111745933975838    Au002
