Na11 Mg1 Ni1 O8
1.0
   5.7463989257812500    0.0000000000000000   -0.6695444583892834
  -2.1131725799603340    5.6669137429697543    0.2961840033531183
   0.0000000000000000    0.0000000000000000   10.0390558242797852
Na Mg Ni O
11 1 1 8
direct
   0.4023198485374450    0.3683525025844575    0.1124510094523430 Na
   0.0467576794326306    0.2667283415794373    0.3863016068935394 Na
   0.6249106526374817    0.0063420957885683    0.5311822891235352 Na
   0.1776731908321381    0.1768389046192169    0.6490469574928284 Na
   0.6711832880973816    0.6270493865013123    0.6957805156707764 Na
   0.1708021759986878    0.7625270485877992    0.3064646720886230 Na
   0.7153747677803040    0.2018872201442719    0.8193575143814087 Na
   0.0684846490621567    0.8893846869468690    0.9421207308769226 Na
   0.3364966213703156    0.6098232865333557    0.8899390101432800 Na
   0.6680202484130859    0.9531492590904236    0.1342185288667679 Na
   0.6768445968627930    0.5321156978607178    0.4136462509632111 Na
   0.9202638864517211    0.4475061297416688    0.0716626793146133 Mg
   0.1387878209352493    0.6852448582649231    0.5902221798896790 Ni
   0.9919789433479308    0.1879906654357910    0.0069533726200461 O
   0.8879004120826720    0.3869506120681763    0.6157062649726868 O
   0.6971797943115234    0.5310912132263185    0.9281120896339417 O
   0.3568038046360016    0.8874440193176270    0.7246819138526917 O
   0.7534065246582030    0.3390398025512696    0.2402776628732681 O
   0.3611260652542114    0.5978691577911377    0.4966593980789185 O
   0.9940328598022460    0.8888495564460754    0.4795439839363098 O
   0.2588151097297668    0.6970127820968628    0.1024435758590698 O
