Na3 Bi1
1.0
   4.4552612304687491    0.0000000000000000   -2.0772874355316171
  -0.9685713963395418    4.3428840448680459   -2.0555872917175293
   0.0000000000000000    0.0000000000000000    5.8332972526550293
Na Bi
3 1
direct
   0.8640690445899963    0.9975540041923523    0.7167699933052063 Na
   0.6134220361709595    0.2474285066127777    0.2168272286653518 Na
   0.3631328046321869    0.4979321956634521    0.7168968915939331 Na
   0.1137345135211945    0.7477625012397766    0.2170609533786773 Bi
