Generated by VASPKIT code
 1.000000
    5.9303216070204883    0.0376852617372054   -1.3544598617023336
    0.3237813757160954    6.6166406411459091   -0.5386274028913509
    0.2058619499211015   -0.5291172301348751    8.3265801575204570
   Fe   O 
     3    10
Direct
    0.1228014438223047    0.7516655739187365    0.0957447451920244    Fe001
    0.2940221613944716    0.1770910863266185    0.6882710475517368    Fe002
    0.6922007736101882    0.5876326253746303    0.2310796662181578    Fe003
    0.6881257970045390    0.3115087935407843    0.2616569663306762     O001
    0.1745590675793510    0.0217503984034160    0.1848184808725583     O002
    0.9857053110188518    0.5770053159141239    0.1893955518671496     O003
    0.5415953710537638    0.1698705355316124    0.8464122894336438     O004
    0.3673296956061294    0.3732953945323658    0.5729594400054353     O005
    0.2399853624473770    0.9046543756233085    0.6417152826777882     O006
    0.0180012521569435    0.2830650910591770    0.7132208313639420     O007
    0.7090054343277155    0.7600554394661421    0.4293584329660916     O008
    0.8966694435502260    0.7726196694934364    0.9131775462959003     O009
    0.4193524389383128    0.6504285476992629    0.1063927609583862     O010
