Na3 Ti1 B1 P4 O15                       
   1.00000000000000     
     5.0730172116625001    0.0047247588373578   -1.1715714585121877
     1.1638296511490365    7.5791328489665695    1.4934576201550240
     0.0279575695284149    0.0120311276818137    8.3102787544922112
   Na   Ti   B    P    O 
     3     1     1     4    15
Direct
  0.2363116299279058  0.4484243563490968  0.5660286620828675
  0.7579583307500452  0.3040638634811882  0.9368709796577219
  0.8768052869340086  0.6830486360661896  0.1050211513053120
  0.8041112127607621  0.9836516108095085  0.4582502203554867
  0.4464989661423552  0.8899585800860805  0.6898923049695791
  0.4703348941407728  0.3760119451728958  0.2353990964714308
  0.7711430448682652  0.6150431784433540  0.6885947617451057
  0.2749530621226460  0.0484745245393392  0.8439974137913674
  0.2566335851683375  0.0324363258598990  0.1933475899938675
  0.5192891140215075  0.9008155478287485  0.8796509754978656
  0.1311571465869981  0.0023327949325820 -0.0005710564966268
  0.0651647374935794  0.9648041670736965  0.2928792070507895
  0.8823955738230387  0.7294425752002491  0.5416808486689412
  0.1356919818055960  0.9892075632423812  0.6734622705134676
  0.5414940826365758  0.9358414226083847  0.2544892453089995
  0.3293090559075524  0.2329862733097702  0.8195146014110807
  0.2913030749298546  0.4917782552512268  0.3018495346412606
  0.4691915982208778  0.7168587452696921  0.6676364108098659
  0.5713661757864592  0.0048420036698552  0.5880148349312558
  0.2500193290410793  0.2358966819729159  0.1619779710871683
  0.7379520484253739  0.4343878432021397  0.6546766685039106
  0.6984163518758542  0.2354783739435996  0.3642551125560349
  0.9417430298675482  0.6151471683132308  0.8603579210106386
  0.5805141024152812  0.4635796110764234  0.0949289264291522
 
  0.00000000E+00  0.00000000E+00  0.00000000E+00
  0.00000000E+00  0.00000000E+00  0.00000000E+00
  0.00000000E+00  0.00000000E+00  0.00000000E+00
  0.00000000E+00  0.00000000E+00  0.00000000E+00
  0.00000000E+00  0.00000000E+00  0.00000000E+00
  0.00000000E+00  0.00000000E+00  0.00000000E+00
  0.00000000E+00  0.00000000E+00  0.00000000E+00
  0.00000000E+00  0.00000000E+00  0.00000000E+00
  0.00000000E+00  0.00000000E+00  0.00000000E+00
  0.00000000E+00  0.00000000E+00  0.00000000E+00
  0.00000000E+00  0.00000000E+00  0.00000000E+00
  0.00000000E+00  0.00000000E+00  0.00000000E+00
  0.00000000E+00  0.00000000E+00  0.00000000E+00
  0.00000000E+00  0.00000000E+00  0.00000000E+00
  0.00000000E+00  0.00000000E+00  0.00000000E+00
  0.00000000E+00  0.00000000E+00  0.00000000E+00
  0.00000000E+00  0.00000000E+00  0.00000000E+00
  0.00000000E+00  0.00000000E+00  0.00000000E+00
  0.00000000E+00  0.00000000E+00  0.00000000E+00
  0.00000000E+00  0.00000000E+00  0.00000000E+00
  0.00000000E+00  0.00000000E+00  0.00000000E+00
  0.00000000E+00  0.00000000E+00  0.00000000E+00
  0.00000000E+00  0.00000000E+00  0.00000000E+00
  0.00000000E+00  0.00000000E+00  0.00000000E+00
