K1 Na1 Al2 Fe2 F14
1.0
   3.7006490230560303    0.0000000000000000   -0.0012045061448587
   0.0032125922964103    6.4691673885001908   -0.0472878701984882
   0.0000000000000000    0.0000000000000000   10.9436054229736328
K Na Al Fe F
1 1 2 2 14
direct
   0.7517492175102235    0.3615325689315796    0.2123986184597015 K
   0.2521559894084930    0.3609087169170379    0.8792366385459899 Na
   0.2518884539604187    0.8619845509529113    0.0219638645648956 Al
   0.2527851462364197    0.8635114431381226    0.7158231735229492 Al
   0.2514303922653198    0.3623969256877899    0.5287581682205200 Fe
   0.2513479590415955    0.8611387014389038    0.3729451894760132 Fe
   0.7508634924888612    0.3626994192600250    0.5199446082115173 F
   0.7519202232360841    0.8618590831756591    0.3691599369049072 F
   0.2514427006244659    0.1561684757471085    0.3752520084381104 F
   0.2546004652976990    0.8628659844398499    0.1995104849338531 F
   0.2502549588680267    0.8653894662857055    0.5429335832595825 F
   0.7514188885688783    0.8583942055702208    0.0245217755436897 F
   0.2540006637573242    0.0206080451607704    0.8684290647506713 F
   0.7509816884994508    0.8650869727134705    0.7147433161735535 F
   0.2507100105285645    0.5743388533592224    0.6709197759628296 F
   0.2546162605285645    0.7078217267990111    0.8687599897384642 F
   0.2520471811294556    0.1439513713121414    0.0661384761333466 F
   0.2524250149726868    0.5660488009452820    0.3753397166728973 F
   0.2526139616966248    0.5796998739242553    0.0652442127466202 F
   0.2516952753067017    0.1535097807645798    0.6748404502868652 F
