K1 Na3 Ti1 F7
1.0
   5.5269069671630859    0.0000000000000000   -0.5665734410285947
   0.9558697370252101    4.2936612631239717   -3.4601678848266606
   0.0000000000000000    0.0000000000000000    7.5533862113952637
K Na Ti F
1 3 1 7
direct
   0.0879898518323898    0.5540705323219299    0.9131514430046083 K
   0.6068937778472902    0.9332737922668456    0.7976743578910829 Na
   0.5565716028213501    0.5758290886878967    0.1957512795925141 Na
   0.6760091185569763    0.2147236317396164    0.4643991589546204 Na
   0.1159180402755737    0.3909870088100433    0.3194746077060699 Ti
   0.3177210092544556    0.0366378612816334    0.2996564507484436 F
   0.6134761571884155    0.3809339404106141    0.8263289332389833 F
   0.2875288128852844    0.2388975024223328    0.0453601703047752 F
   0.3820175230503082    0.6251674890518188    0.4917889833450318 F
   0.9084010720252991    0.7283113002777100    0.3179928362369537 F
   0.8487706184387207    0.1486377418041229    0.1446530222892761 F
   0.9321786761283875    0.5499538183212280    0.5910965800285339 F
