Na3 Li2 Ga3 O7
1.0
   5.3159813880920410    0.0000000000000000   -3.6463377475738521
  -1.5836157051329571    6.3734861320797691    0.9910902976989745
   0.0000000000000000    0.0000000000000000    5.7409200668334961
Na Li Ga O
3 2 3 7
direct
   0.3837563991546631    0.3300476372241974    0.9126199483871460 Na
   0.4361868202686310    0.6294481754302979    0.4414330124855042 Na
   0.7984896898269653    0.8295359611511230    0.9793815612792969 Na
   0.7833864688873291    0.0309038944542408    0.3688629567623138 Li
   0.8486249446868896    0.5157806873321533    0.5033205747604371 Li
   0.9056635499000549    0.3681818842887878    0.0038860379718244 Ga
   0.2090582400560379    0.8121824264526367    0.8515608906745911 Ga
   0.3541722893714905    0.0831724181771279    0.4246698319911957 Ga
   0.3786104023456573    0.8572051525115967    0.6633499860763550 O
   0.0222261510789394    0.1394264549016953    0.2421547621488571 O
   0.4043259024620056    0.0076722190715373    0.1558544933795929 O
   0.6132447123527527    0.3199007809162140    0.6202859878540039 O
   0.1786679178476334    0.5251723527908325    0.9659010767936707 O
   0.8076808452606201    0.5035075545310974    0.1596736758947372 O
   0.8657725453376770    0.8099685311317445    0.6188169717788697 O
