Generated by VASPKIT code
 1.000000
    6.8069152680277520   -0.0049526044320739    0.0174370837818516
    0.0047062978451725    6.8072590076765236    0.0126509068605619
   -0.0198992466714134   -0.0151621550646053    6.8074073823795080
   Cd   Se
     1     4
Direct
    0.8043435472318416    0.0279531852290937    0.1978937449533248    Cd001
    0.5712181515704202    0.2615490324060076    0.9648240881151638    Se001
    0.0374638231125220    0.2612290372046608    0.4309289513221058    Se002
    0.0377692212005939    0.7950833638239687    0.9644472124582908    Se003
    0.5710804751609393    0.7946298372998811    0.4318030150035602    Se004
