Na1 Mn1 Cu1 Se2
1.0
   3.7995247840881348    0.0000000000000000   -1.1633125543594358
   0.0293062747016866    4.1272243492932672   -0.0084992758929729
   0.0000000000000000    0.0000000000000000    6.9238600730895996
Na Mn Cu Se
1 1 1 2
direct
   0.1812407523393631    0.6276254057884216    0.4239916205406189 Na
   0.4030437469482422    0.1302416324615479    0.8661590814590454 Mn
   0.8984228968620300    0.6305294036865234    0.8614747524261475 Cu
   0.5077475905418396    0.6302857995033264    0.0784211382269859 Se
   0.7897816896438599    0.1300460845232010    0.6372546553611755 Se
