Na6 Cd5 S8
1.0
   4.0304718017578125    0.0000000000000000    0.5149710178375246
  -0.0395388781627029    7.2963735263267981   -0.0905154719948776
   0.0000000000000000    0.0000000000000000   15.1635980606079102
Na Cd S
6 5 8
direct
   0.9714372754096985    0.1141116246581077    0.8210899233818054 Na
   0.7660898566246033    0.4177175164222717    0.2324629426002503 Na
   0.8677332997322083    0.7569038271903992    0.0326155610382557 Na
   0.6519338488578796    0.6363440752029419    0.4685934782028199 Na
   0.2331335693597794    0.8817490339279175    0.3053297996520996 Na
   0.4781598150730133    0.7480757832527160    0.8058670759201050 Na
   0.0409464761614799    0.5093955993652344    0.6765203475952148 Cd
   0.5757049918174744    0.0156083032488823    0.6072832942008972 Cd
   0.1610961705446243    0.2421418428421020    0.4495704472064972 Cd
   0.3292278647422791    0.1294174194335938    0.1057449653744698 Cd
   0.4138616025447845    0.3775116503238677    0.9400045871734620 Cd
   0.5727646350860596    0.3677231967449188    0.6082775592803955 S
   0.7926865220069885    0.0126225845888257    0.1864541321992874 S
   0.4135592579841614    0.0134918391704559    0.9397307634353639 S
   0.6682658195495605    0.0156129905954003    0.4362500905990601 S
   0.9555906057357788    0.4968581199645996    0.8526816368103027 S
   0.3350510299205780    0.4942550063133240    0.0960007682442665 S
   0.2037282139062881    0.5148789882659912    0.3598383367061615 S
   0.0418326444923878    0.8652760386466980    0.6743207573890686 S
