Generated by VASPKIT code
 1.000000
    5.0060078256548923   -0.0042593267684449    2.9014476219489280
    1.6673970961971745    4.7200133660761976    2.9040249032611425
   -0.0065834838764115   -0.0077287911480139    5.7854820276737104
   Ba   Hf   Sb   O 
     1     1     1     6
Direct
    0.2007131413086359    0.0462554529308335    0.0624198900606026    Ba001
    0.4506258465366544    0.2962061674641310    0.3123516658120979    Hf001
    0.9505891683621851    0.7961054915379832    0.8123445731466458    Sb001
    0.1961854372840322    0.0418475393124011    0.5667491287391778     O001
    0.7046608091301841    0.0417703512325064    0.5670238411962203     O002
    0.7048617389069357    0.5504387016460757    0.0583186277619340     O003
    0.7048154776769686    0.0417025641514953    0.0582901429505016     O004
    0.1961109063770238    0.5502802465051402    0.0582813402430564     O005
    0.1961259018515780    0.5505296177215787    0.5667446930722790     O006
