Na2 Fe1 P3 O10
1.0
   6.1572995185852051    0.0000000000000000   -0.8485077619552607
   1.4828919909884768    5.8668100222551276   -2.1263768672943111
   0.0000000000000000    0.0000000000000000    6.4835319519042969
Na Fe P O
2 1 3 10
direct
   0.9568040966987610    0.8069734573364258    0.9672957062721252 Na
   0.0719929188489914    0.2131277322769165    0.6939811110496521 Na
   0.3879539966583252    0.6626584529876709    0.3157797455787659 Fe
   0.8580354452133178    0.8067995309829713    0.4280145764350891 P
   0.4682647883892059    0.1675651967525482    0.3872089982032776 P
   0.5071099400520325    0.5572231411933899    0.7865087389945984 P
   0.0613187775015831    0.7089093327522278    0.2851893305778504 O
   0.3227487802505493    0.0061850538477302    0.3628259897232056 O
   0.4532627165317535    0.3054787516593934    0.6435902714729309 O
   0.4125904738903046    0.3246080875396729    0.2534984946250916 O
   0.7593765854835510    0.5183433294296265    0.8274533152580261 O
   0.3674813508987427    0.6194287538528442    0.9880223870277405 O
   0.7084050178527832    0.6354911923408508    0.3518843054771423 O
   0.3998723030090332    0.7163558602333069    0.6465394496917725 O
   0.9033300876617432    0.9180405139923096    0.6693862080574036 O
   0.7199823856353760    0.0298262294381857    0.3374184072017670 O
