Cs2 Na2 Mg1 Fe1 F9
1.0
   5.7631626129150400    0.0000000000000000    2.1947219371795659
   2.4657897058942093    5.2025467876176323    2.1958317756652836
   0.0000000000000000    0.0000000000000000    8.6617383956909180
Cs Na Mg Fe F
2 2 1 1 9
direct
   0.7505220174789429    0.7097606062889099    0.3406795561313629 Cs
   0.1971549987792969    0.1556687355041504    0.0043990863487124 Cs
   0.3482017815113068    0.3073375225067139    0.5504415631294250 Na
   0.4805468916893005    0.4387595951557159    0.1545752286911011 Na
   0.0352848619222641    0.9929873943328857    0.4935698211193085 Mg
   0.9115806818008423    0.8693726658821106    0.8622545003890991 Fe
   0.7167960405349731    0.1207148432731629    0.0008310079574585 F
   0.7172690629959106    0.6746948361396790    0.9999995231628418 F
   0.1634645462036133    0.6749284863471985    0.0009185075759888 F
   0.7685627937316895    0.1990441232919693    0.3515025675296783 F
   0.1111769825220108    0.6473008990287781    0.6896429657936096 F
   0.6902949213981628    0.0665275454521179    0.6903710961341858 F
   0.2394789457321166    0.7264016270637513    0.3515888154506683 F
   0.1075524538755417    0.0664597228169441    0.6910107135772705 F
   0.2393806427717209    0.1987734287977219    0.3518623113632202 F
