Na4 Cu3 F13
1.0
   5.6057353019714355    0.0000000000000000    0.4475308358669286
  -0.0158289382484036    5.7492987170171075   -0.7078393101692196
   0.0000000000000000    0.0000000000000000    8.1911401748657227
Na Cu F
4 3 13
direct
   0.6279465556144714    0.4432081878185272    0.4227081239223480 Na
   0.6809492111206055    0.8632727861404420    0.0964570045471191 Na
   0.1447720676660538    0.9583547711372377    0.4116046130657196 Na
   0.0758270472288132    0.4905185103416443    0.6971718668937683 Na
   0.5570045113563538    0.3193032443523407    0.9941608905792236 Cu
   0.1393090486526489    0.4158064126968384    0.1601985991001129 Cu
   0.6038248538970947    0.9764029383659363    0.6181433200836182 Cu
   0.1249373927712440    0.4164029955863953    0.3858903944492340 F
   0.5945398211479187    0.9368911981582643    0.3853021860122681 F
   0.6180414557456970    0.0408838167786598    0.8570407629013062 F
   0.8427237868309021    0.7466818094253540    0.5925984382629395 F
   0.3405325412750244    0.1381802260875702    0.1377715319395065 F
   0.4576522409915924    0.5564342141151428    0.1722975224256516 F
   0.2047801017761230    0.4135412573814392    0.9380423426628113 F
   0.7282484769821167    0.5317947864532472    0.8891710638999939 F
   0.8424481749534607    0.1951871067285538    0.5889387130737305 F
   0.9955555200576781    0.7085086107254029    0.1931586116552353 F
   0.3689576089382172    0.7484411597251892    0.6238278150558472 F
   0.8530966043472290    0.2412943840026856    0.1490388810634613 F
   0.3762750625610352    0.2076303958892822    0.6082364320755005 F
