Na11 Cu3 O7
1.0
   6.0647926330566415    0.0000000000000000   -1.7793006896972650
  -2.5502177895415206    7.5272568904653649   -1.1909067630767820
   0.0000000000000000    0.0000000000000000    7.7382159233093262
Na Cu O
11 3 7
direct
   0.3882579803466797    0.5950365066528320    0.2239597886800766 Na
   0.8969634771347046    0.5243581533432007    0.4187417328357697 Na
   0.6102620959281921    0.7615046501159668    0.9017710089683533 Na
   0.4004431962966919    0.0596351660788059    0.5894287824630737 Na
   0.9680651426315308    0.5624464154243469    0.9733923077583313 Na
   0.7775098681449890    0.8670881390571594    0.5613866448402405 Na
   0.4912537932395935    0.3337613940238953    0.9818936586380005 Na
   0.2244964987039566    0.2032914906740189    0.2815025448799133 Na
   0.6343238949775696    0.0542493909597397    0.2471309453248977 Na
   0.1697891354560852    0.9198313951492311    0.9161021709442139 Na
   0.9996569156646729    0.2711240053176880    0.6529982089996338 Na
   0.8373002409934998    0.1663964539766312    0.9489275813102722 Cu
   0.6002085208892822    0.4697574973106384    0.6120568513870239 Cu
   0.9909206628799438    0.8350100517272949    0.2712856829166412 Cu
   0.5354022383689880    0.0440503060817719    0.9097166061401367 O
   0.2626870870590210    0.8421878814697266    0.2068535536527634 O
   0.1313855499029160    0.3137219548225403    0.9960570335388184 O
   0.6245688796043396    0.2774501442909241    0.4697686433792114 O
   0.8432567715644836    0.6797685623168945    0.7270545363426208 O
   0.7299560904502869    0.6206466555595398    0.1560290008783340 O
   0.0077578793279827    0.0419287234544754    0.4376079142093658 O
