Generated by VASPKIT code
 1.000000
    6.3679791602233413    0.2733553152604577   -1.4988864582670411
   -1.6704034770743958    7.4599647109381664   -3.2628414701115256
   -0.3350622043949130   -0.1387329022281311    9.1068824333662626
   Mg   Ta   Ti   P    O 
     2     1     1     5    21
Direct
    0.4812969654818168    0.5299447864358129    0.1369216552211061    Mg001
    0.6804742314057153    0.1714003813177384    0.9270012588726906    Mg002
    0.1226502343606068    0.7363469706658249    0.6201372902858530    Ta001
    0.5050841182214673    0.0683196641484877    0.4711821688408283    Ti001
    0.4634036162657625    0.8625455451918330    0.0235210114626262     P001
    0.1446022565663685    0.1640381739233361    0.8350510506032729     P002
    0.9875016801658804    0.5833593253861781    0.1805496323527840     P003
    0.5813519934115040    0.6870245527874372    0.4970049823284148     P004
    0.9120284336861213    0.3772557234595290    0.6530030748853809     P005
    0.2478477207437677    0.8277510218200675    0.8701987953435742     O001
    0.1378172239704997    0.9958109780439418    0.6718108684375621     O002
    0.0277179074923726    0.6560324306217939    0.3830556652383441     O003
    0.5422544388368866    0.8071552674972993    0.4022422431088727     O004
    0.1754386257581520    0.4953295386767587    0.1446468182020122     O005
    0.0934985049755602    0.3118245373881327    0.7647075599697047     O006
    0.5540205261186280    0.4975788333838666    0.3644442193612772     O007
    0.7724577951408321    0.4424338159732622    0.0999027867155325     O008
    0.6472840754732551    0.9647979031368907    0.9967379048799500     O009
    0.4295777305825122    0.9793553132937884    0.1901696158779642     O010
    0.4931598314983919    0.6740949392966951    0.0048038611733923     O011
    0.9876904054543479    0.1281212978425357    0.9187222521531510     O012
    0.4232931265129172    0.7082475599888930    0.6051352671533976     O013
    0.2871762325107755    0.1746327292543452    0.4450095160166226     O014
    0.7879713544826141    0.4871680298608840    0.7570209301724722     O015
    0.8163816141506628    0.7485253952383677    0.6273809555473114     O016
    0.7807980508712663    0.2121842041109230    0.4898779142287049     O017
    0.9720160638567438    0.7493050359760246    0.1523772753975891     O018
    0.3774089049463945    0.2440895796487018    0.9554082199466297     O019
    0.0655507785367252    0.4904342299641353    0.6077313520164492     O020
    0.5808259638836983    0.1245191958712183    0.6874917550296702     O021
