Na5 Mg1 Ti1 Ga1 O7
1.0
   4.6256585121154785    0.0000000000000000   -3.0591132640838623
   0.2349511786812293    5.3978527231195823   -1.0154300928115840
   0.0000000000000000    0.0000000000000000    8.5681209564208984
Na Mg Ti Ga O
5 1 1 1 7
direct
   0.5939905047416687    0.2956708371639252    0.2761682868003845 Na
   0.8542330265045166    0.2757554948329926    0.0494643524289131 Na
   0.0993374362587929    0.7780822515487670    0.2709875702857971 Na
   0.6525945067405701    0.7948420047760010    0.8019207119941711 Na
   0.9307175278663635    0.7728611230850220    0.5517089366912842 Na
   0.0718452334403992    0.3155067563056946    0.8056170344352722 Mg
   0.3447627425193787    0.3237458467483521    0.5642105937004089 Ti
   0.3288455009460449    0.7741790413856506    0.9760975241661072 Ga
   0.6532222628593445    0.9460380077362062    0.0925826355814934 O
   0.0195657629519701    0.9977117180824281    0.8457115888595581 O
   0.2033812850713730    0.5452212095260620    0.0505523979663849 O
   0.0313342548906803    0.4468029141426087    0.3641956448554993 O
   0.2922652661800385    0.0044293073005974    0.5615693330764771 O
   0.3532050549983978    0.4959895014762878    0.7856784462928772 O
   0.6789491772651672    0.4004647731781006    0.5886471867561340 O
