Na4 Bi2 O5
1.0
   4.8211059570312500    0.0000000000000000   -0.0004898727056570
   0.0128715356440152    4.6485469953171590    1.5818387269973757
   0.0000000000000000    0.0000000000000000    7.6119279861450195
Na Bi O
4 2 5
direct
   0.1147995218634605    0.8866627216339111    0.5550463795661926 Na
   0.6096758842468262    0.7084385156631471    0.9098370671272277 Na
   0.1161716207861900    0.2085902392864228    0.9098871946334838 Na
   0.1158043742179871    0.5295672416687012    0.2653284072875977 Na
   0.6270564794540405    0.0400548391044140    0.2272138893604278 Bi
   0.6271098256111145    0.3764694035053253    0.5933200120925903 Bi
   0.0738829970359802    0.0511332415044308    0.2268500924110412 O
   0.6124628782272339    0.2098628282546997    0.9096362590789794 O
   0.6115437150001526    0.5953791737556458    0.2384752184152603 O
   0.6111908555030823    0.8219479918479921    0.5803617238998413 O
   0.0655308514833450    0.3652554750442505    0.5941218137741089 O
