Na3 Sc1 Ag1 F8
1.0
   5.3792290687561044    0.0000000000000000    2.1704094409942609
  -1.7650261090120287    5.5801720034876681   -1.7883448600769041
   0.0000000000000000    0.0000000000000000    6.0881166458129883
Na Sc Ag F
3 1 1 8
direct
   0.7002909183502197    0.2283442318439484    0.7085120677947998 Na
   0.7441222667694092    0.7416051030158998    0.7131345272064209 Na
   0.3117585778236389    0.0616855211555958    0.3936082720756531 Na
   0.9956271648406981    0.3527128994464874    0.1008778810501099 Sc
   0.6393973231315613    0.7085042595863342    0.2312663197517395 Ag
   0.6620254516601562    0.3885043859481812    0.4229202270507812 F
   0.5089678764343262    0.8797616362571717    0.5786970853805542 F
   0.6523412466049194    0.0567339323461056    0.0567957013845444 F
   0.0584563724696636    0.1364113390445709    0.7591843605041504 F
   0.0439206734299660    0.1766657978296280    0.2974208295345306 F
   0.9148017168045043    0.5402927994728089    0.9237765073776245 F
   0.3995386958122253    0.4643355309963227    0.9541862010955811 F
   0.0894694477319717    0.6822701096534729    0.3200415670871735 F
