Sr1 Zr1 W1 O6
1.0
   4.9453721046447763    0.0000000000000000    2.8404686450958252
   1.6459587439905905    4.6628881684138355    2.8449075222015376
   0.0000000000000000    0.0000000000000000    5.6964402198791504
Sr Zr W O
1 1 1 6
direct
   0.1922020316123962    0.1067302823066711    0.2411293685436249 Sr
   0.4419573545455933    0.3574254810810089    0.4911460876464844 Zr
   0.9424950480461121    0.8559687733650208    0.9912226200103760 W
   0.1826243102550507    0.0971923694014549    0.7510505914688110 O
   0.7026419043540955    0.0965088233351707    0.7513272762298584 O
   0.1829005777835846    0.6167144775390625    0.2315619736909866 O
   0.1827577203512192    0.6170720458030701    0.7508233785629272 O
   0.7024940252304077    0.0967541411519051    0.2315260171890259 O
   0.7028283476829529    0.6168060302734375    0.2310191243886948 O
